;MADE BY EPANET-JS [167fdf31]
[JUNCTIONS]
;Id	Elevation
J129	799.8687664041995
J1	745.7349081
J10	783.7926509
J100	751.6404199
J101	750.328084
J102	750
J103	747.7034121
J104	745.0787402
J105	776.9028871
J106	770.6692913
J107	746.3910761
J108	755.9055118
J109	763.7795276
J11	718.832021
J110	758.5301837
J111	764.4356955
J112	757.5459318
J113	754.2650919
J114	753.6089239
J115	767.3884514
J116	729.0026247
J117	789.3700787
J118	770.6692913
J119	783.7926509
J12	743.1102362
J120	772.9658793
J121	779.5275591
J122	768.0446194
J13	768.0446194
J14	765.7480315
J15	751.312336
J16	771.6535433
J17	749.015748
J18	758.5301837
J19	732.6115486
J2	749.015748
J20	743.4383202
J21	751.6404199
J22	778.5433071
J23	784.1207349
J24	740.1574803
J25	770.6692913
J26	742.4540682
J27	719.488189
J28	736.2204724
J123	799.2125984251968
J124	806.1023622047244
J29	755.9055118
J125	796.9160104986877
J126	799.2125984251968
J3	758.2020997
J30	730.3149606
J127	795.9317585301837
J31	754.9212598
J128	800.5249343832021
J32	759.8425197
J33	750.984252
J34	767.7165354
J35	759.8425197
J36	754.5931759
J37	745.4068241
J38	750.656168
J39	754.5931759
J4	723.4251969
J40	757.8740157
J41	758.8582677
J42	785.7611549
J43	771.9816273
J44	763.7795276
J45	757.5459318
J46	724.7375328
J47	759.8425197
J48	754.2650919
J49	763.1233596
J5	757.2178478
J50	763.7795276
J51	734.5800525
J52	783.4645669
J53	748.3595801
J54	760.8267717
J55	752.6246719
J56	761.4829396
J57	738.1889764
J58	763.1233596
J59	760.8267717
J6	758.5301837
J60	790.6824147
J61	761.4829396
J62	757.8740157
J63	759.8425197
J64	759.5144357
J65	757.8740157
J66	746.3910761
J67	757.5459318
J68	763.4514436
J69	755.5774278
J7	780.839895
J70	730.9711286
J71	752.9527559
J72	771.3254593
J73	760.4986877
J74	756.8897638
J75	752.9527559
J76	762.1391076
J77	713.9107612
J78	770.3412073
J79	734.9081365
J8	746.3910761
J80	739.1732283
J81	748.3595801
J82	735.8923885
J83	727.3622047
J84	745.0787402
J85	765.7480315
J86	754.5931759
J87	751.6404199
J88	757.2178478
J89	756.5616798
J9	750.984252
J90	755.9055118
J91	770.3412073
J92	742.7821522
J93	756.5616798
J94	746.7191601
J95	767.3884514
J96	753.2808399
J97	747.3753281
J98	773.2939633
J99	763.1233596

[RESERVOIRS]
;Id	Head	Pattern
R1	925
R2	1250

[TANKS]
;Id	Elevation	InitLevel	MinLevel	MaxLevel	Diameter	MinVol
T1	795.2755905511812	125	0	150	90	0	*	NO

[PIPES]
;Id	Start	End	Length	Diameter	Roughness	MinorLoss	Status
P43_1	J129	J123	284.15164453268744	12	130	0	CV
P166	R2	J128	50.19	12	130	0	Open
P165	J126	J128	123.07	12	130	0	Open
P43_2	J127	J60	162.02025010912692	12	130	0	Open
P163	J125	T1	314.09	12	130	0	Open
P1	J85	J105	204.74	6	130	0	Open
P2	J77	J27	198.4	6	130	0	Open
P3	J2	J12	420.7	8	130	0	Open
P4	J40	J32	345.2	6	130	0	Open
P5	J23	J117	368.05	12	130	0	Open
P6	J111	J53	1248.13	6	130	0	Open
P7	J103	J75	969.02	6	130	0	Open
P8	J38	J101	341.48	6	130	0	Open
P9	J48	J65	327.33	6	130	0	Open
P10	J14	J6	296.32	6	130	0	Open
P11	J99	J3	515.01	6	130	0	Open
P12	J76	J122	520.68	6	130	0	Open
P13	J118	J10	360.98	12	130	0	Open
P14	J66	J61	902.07	12	130	0	Open
P15	J117	J16	207.33	6	130	0	Open
P16	J84	J97	463.18	8	130	0	Open
P17	J11	J38	1190.42	6	130	0	Open
P18	J74	J20	286.61	6	130	0	Open
P19	J71	J82	980.9	6	130	0	Open
P20	J104	J51	203.53	6	130	0	Open
P21	J111	J120	1408.74	6	130	0	Open
P22	J34	J54	369.45	6	130	0	Open
P23	J122	J76	1112.16	6	130	0	Open
P24	J96	J24	242.49	8	130	0	Open
P25	J34	J7	477.27	6	130	0	Open
P26	J15	J81	244.61	6	130	0	Open
P27	J36	J29	325.35	6	130	0	Open
P28	J88	J5	97.81	6	130	0	Open
P29	J31	J50	398.39	6	130	0	Open
P30	J42	J121	196.02	6	130	0	Open
P31	J74	J78	654.2	6	130	0	Open
P32	J9	J53	204.97	6	130	0	Open
P33	J6	J84	421.79	8	130	0	Open
P34	J3	J85	970.01	6	130	0	Open
P35	J112	J110	204.59	6	130	0	Open
P36	J9	J45	1210.62	6	130	0	Open
P37	J103	J87	346.57	6	130	0	Open
P38	J8	J116	601.87	6	130	0	Open
P39	J104	J82	407.4	6	130	0	Open
P40	J1	J96	1889.77	6	130	0	Open
P41	J73	J68	797.47	6	130	0	Open
P42	J98	J91	1085.3	12	130	0	Open
P44	J13	J106	186.32	6	130	0	Open
P45	J90	J106	610.01	6	130	0	Open
P46	J85	J49	267.66	6	130	0	Open
P47	J86	J39	345.87	12	130	0	Open
P48	J119	J22	1780.22	6	130	0	Open
P49	J63	J89	259.97	6	130	0	Open
P50	J13	J118	624.51	6	130	0	Open
P51	J78	J110	592.32	6	130	0	Open
P52	J94	J48	899.01	6	130	0	Open
P53	J70	J114	973.86	6	130	0	Open
P54	J108	J55	144.26	6	130	0	Open
P55	J10	J52	449.37	12	130	0	Open
P56	J112	J71	1044.93	12	130	0	Open
P57	J92	J83	1056.95	6	130	0	Open
P58	J64	J89	1220.8	6	130	0	Open
P59	J12	J1	357.56	8	130	0	Open
P60	J42	J52	510.8	12	130	0	Open
P61	J62	J73	514.57	6	130	0	Open
P62	J109	J47	728.5	6	130	0	Open
P63	J102	J100	319.78	6	130	0	Open
P64	J110	J74	1166.82	6	130	0	Open
P65	J63	J50	897.65	6	130	0	Open
P66	J63	J21	626.63	6	130	0	Open
P67	J4	J57	177.16	6	130	0	Open
P68	J7	J49	971.89	6	130	0	Open
P69	J49	J7	967.35	6	130	0	Open
P70	J56	J93	626.1	12	130	0	Open
P71	J76	J65	187.74	6	130	0	Open
P72	J90	J41	421.18	6	130	0	Open
P73	J82	J19	185.6	6	130	0	Open
P74	J53	J97	234.22	6	130	0	Open
P75	J99	J34	354.1	6	130	0	Open
P76	J104	J37	235.2	6	130	0	Open
P77	J64	J61	326	6	130	0	Open
P78	J8	J28	199.94	6	130	0	Open
P79	J96	J12	1473.06	6	130	0	Open
P80	J35	J120	646.74	6	130	0	Open
P81	J82	J92	977.83	6	130	0	Open
P82	J22	J119	280.97	6	130	0	Open
P83	J18	J31	485.97	6	130	0	Open
P84	J93	J59	256	6	130	0	Open
P85	J25	J35	410.35	6	130	0	Open
P86	J119	J52	674.2	6	130	0	Open
P87	J17	J36	1158.27	6	130	0	Open
P88	J3	J45	263.33	6	130	0	Open
P89	J115	J25	239.16	8	130	0	Open
P90	J62	J90	155.47	6	130	0	Open
P91	J120	J25	315.5	8	130	0	Open
P92	J106	J54	1043.37	6	130	0	Open
P93	J50	J35	173.38	6	130	0	Open
P94	J80	J88	508.11	6	130	0	Open
P95	J83	J46	157.68	6	130	0	Open
P96	J79	J24	1300.47	12	130	0	Open
P97	J101	J104	507.04	6	130	0	Open
P98	J71	J65	569.47	8	130	0	Open
P99	J40	J36	458.67	6	130	0	Open
P100	J29	J13	644.72	6	130	0	Open
P101	J15	J18	538.86	6	130	0	Open
P102	J86	J67	577.19	12	130	0	Open
P103	J54	J62	301.07	6	130	0	Open
P104	J48	J113	599.75	6	130	0	Open
P105	J120	J98	380.44	8	130	0	Open
P106	J80	J33	289.29	6	130	0	Open
P107	J117	J60	330.09	12	130	0	Open
P108	J93	J67	432.71	12	130	0	Open
P109	J2	J26	1159.43	6	130	0	Open
P110	J91	J23	1235.92	12	130	0	Open
P111	J6	J72	384.67	8	130	0	Open
P112	J39	J32	340.78	12	130	0	Open
P113	J47	J94	321.81	8	130	0	Open
P114	J89	J64	260.8	6	130	0	Open
P115	J72	J112	1284.2	12	130	0	Open
P116	J33	J17	307.76	6	130	0	Open
P117	J118	J56	261.16	12	130	0	Open
P118	J32	J72	1771.14	12	130	0	Open
P119	J81	J18	636.98	6	130	0	Open
P120	J109	J122	293.51	6	130	0	Open
P121	J73	J58	270.71	6	130	0	Open
P122	J78	J44	384.09	6	130	0	Open
P123	J26	J2	249.86	8	130	0	Open
P124	J95	J98	789	12	130	0	Open
P125	J45	J111	325.54	6	130	0	Open
P126	J115	J111	277.26	6	130	0	Open
P127	J83	J77	205.27	6	130	0	Open
P128	J101	J8	334.76	6	130	0	Open
P129	J26	J103	305.93	6	130	0	Open
P130	J58	J9	831.49	6	130	0	Open
P131	J60	J42	582.23	12	130	0	Open
P132	J34	J22	380.49	6	130	0	Open
P133	J92	J30	1687.94	6	130	0	Open
P134	J108	J4	538.94	6	130	0	Open
P135	J31	J102	853.35	6	130	0	Open
P136	J65	J47	308.42	8	130	0	Open
P137	J94	J109	1048.87	6	130	0	Open
P138	J116	J4	301.2	6	130	0	Open
P139	J14	J44	1091.66	6	130	0	Open
P140	J61	J95	469.53	12	130	0	Open
P141	J69	J86	191.38	6	130	0	Open
P142	J75	J63	276.32	6	130	0	Open
P143	J101	J107	318.26	6	130	0	Open
P144	J114	J15	243.98	6	130	0	Open
P145	J44	J14	283.45	6	130	0	Open
P146	J24	J66	213	12	130	0	Open
P147	J17	J40	1199.15	6	130	0	Open
P148	J38	J108	223.94	6	130	0	Open
P149	J97	J115	1364.99	8	130	0	Open
P150	J29	J43	500.08	6	130	0	Open
P151	J70	J26	341.54	8	130	0	Open
P152	J84	J80	292.99	6	130	0	Open
P153	J85	J91	217.17	6	130	0	Open
P154	J102	J81	290.12	6	130	0	Open
P155	J1	J96	287.37	8	130	0	Open
P156	J88	J33	778.82	6	130	0	Open
P157	J75	J12	728.56	6	130	0	Open
P158	J94	J70	564.96	8	130	0	Open
P159	J58	J99	1057.16	6	130	0	Open
P160	J11	J79	1425.65	6	130	0	Open
P161	J123	J124	769.01	12	130	0	Open
P162	J124	J125	926.56	12	130	0	Open
P164	J125	J23	906.54	12	130	0	CV
P43	R1	J129	30.80010497688851	12	130	0	Open

[PUMPS]
;Id	Start	End	Properties

[VALVES]
;Id	Start	End	Diameter	Setting	MinorLoss
V1	J126	J127	12	PRV	60	0

[DEMANDS]
;Id	Demand	Pattern	Category
J1	7.550992844621593	RESIDENTIAL
J1	0.7550992844621591	;epanetjs_customers
J10	0.6284185833160275	RESIDENTIAL
J10	0.06284185833160276	;epanetjs_customers
J100	1.9707482067997908	RESIDENTIAL
J100	0.19707482067997895	;epanetjs_customers
J102	3.6802562445704443	RESIDENTIAL
J102	0.3680256244570444	;epanetjs_customers
J103	3.1359128865735038	RESIDENTIAL
J103	0.31359128865735036	;epanetjs_customers
J104	0.187397013
J105	1.1846080612509833	RESIDENTIAL
J105	0.11846080612509832	;epanetjs_customers
J106	5.024845580493784	RESIDENTIAL
J106	0.5024845580493783	;epanetjs_customers
J107	2.119237122161474	RESIDENTIAL
J107	0.21192371221614742	;epanetjs_customers
J109	5.476305874442071	RESIDENTIAL
J109	0.547630587444207	;epanetjs_customers
J11	4.661618488759608	RESIDENTIAL
J11	0.4661618488759608	;epanetjs_customers
J110	2.648383987887408	RESIDENTIAL
J110	0.2648383987887408	;epanetjs_customers
J111	8.367296927315254	RESIDENTIAL
J111	0.8367296927315255	;epanetjs_customers
J112	0.11150737448892112	RESIDENTIAL
J112	0.011150737448892108	;epanetjs_customers
J113	1.9480036511900822	RESIDENTIAL
J113	0.19480036511900822	;epanetjs_customers
J114	2.8002095711255843	RESIDENTIAL
J114	0.2800209571125584	;epanetjs_customers
J115	3.9912094805092053	RESIDENTIAL
J115	0.3991209480509207	;epanetjs_customers
J116	0.936985063
J118	0.1051540299243926	RESIDENTIAL
J118	0.010515402992439261	;epanetjs_customers
J119	5.752029516231301	RESIDENTIAL
J119	0.5752029516231303	;epanetjs_customers
J12	7.793939857860633	RESIDENTIAL
J12	0.7793939857860633	;epanetjs_customers
J120	3.3032654064816196	RESIDENTIAL
J120	0.33032654064816186	;epanetjs_customers
J121	0.14267129788698785	RESIDENTIAL
J121	0.014267129788698783	;epanetjs_customers
J122	4.790284197675649	RESIDENTIAL
J122	0.47902841976756466	;epanetjs_customers
J13	2.067285582378846	RESIDENTIAL
J13	0.2067285582378846	;epanetjs_customers
J14	3.231616036763985	RESIDENTIAL
J14	0.32316160367639857	;epanetjs_customers
J15	2.231855667320926	RESIDENTIAL
J15	0.201183006494795	;epanetjs_customers
J16	0.1906118794656803	RESIDENTIAL
J16	0.019061187946568033	;epanetjs_customers
J17	7.350077351364436	RESIDENTIAL
J17	0.7350077351364437	;epanetjs_customers
J18	4.529642319498083	RESIDENTIAL
J18	0.45296423194980817	;epanetjs_customers
J19	5.580368203702749	RESIDENTIAL
J19	0.5580368203702749	;epanetjs_customers
J2	4.7195244930269835	RESIDENTIAL
J2	0.4719524493026985	;epanetjs_customers
J20	0.1822030505008262	RESIDENTIAL
J20	0.01822030505008262	;epanetjs_customers
J21	1.8173208904379992	RESIDENTIAL
J21	0.20373464928109755	;epanetjs_customers
J22	5.483106634369665	RESIDENTIAL
J22	0.5483106634369665	;epanetjs_customers
J23	1.616832904896241	RESIDENTIAL
J23	0.16168329048962413	;epanetjs_customers
J24	0.09411783690262826	RESIDENTIAL
J24	0.009411783690262826	;epanetjs_customers
J25	1.7171152507310092	RESIDENTIAL
J25	0.17171152507310092	;epanetjs_customers
J26	4.832947528831945	RESIDENTIAL
J26	0.48329475288319435	;epanetjs_customers
J27	0.7058267273741418	RESIDENTIAL
J27	0.07058267273741418	;epanetjs_customers
J28	1.5318512921075746	RESIDENTIAL
J28	0.15318512921075744	;epanetjs_customers
J29	3.079745403727723	RESIDENTIAL
J29	0.30797454037277233	;epanetjs_customers
J3	4.333826475595263	RESIDENTIAL
J3	0.4333826475595263	;epanetjs_customers
J30	0.6439506866692828	RESIDENTIAL
J30	0.06439506866692829	;epanetjs_customers
J31	4.936104105014483	RESIDENTIAL
J31	0.4936104105014484	;epanetjs_customers
J32	1.4556365270176048	RESIDENTIAL
J32	0.1455636527017605	;epanetjs_customers
J33	2.124802084085776	RESIDENTIAL
J33	0.21248020840857762	;epanetjs_customers
J34	2.721954591840349	RESIDENTIAL
J34	0.2721954591840349	;epanetjs_customers
J35	2.353681809272208	RESIDENTIAL
J35	0.23536818092722075	;epanetjs_customers
J36	3.5705230071334513	RESIDENTIAL
J36	0.35705230071334504	;epanetjs_customers
J37	9.013276838650132	RESIDENTIAL
J37	0.9013276838650133	;epanetjs_customers
J38	0.13636451744206277	RESIDENTIAL
J38	0.013636451744206274	;epanetjs_customers
J39	0.19177237556487375	RESIDENTIAL
J39	0.019177237556487377	;epanetjs_customers
J4	3.462834175517502	RESIDENTIAL
J4	0.3462834175517502	;epanetjs_customers
J40	4.078005547819074	RESIDENTIAL
J40	0.40780055478190735	;epanetjs_customers
J41	2.395136648859873	RESIDENTIAL
J41	0.23951366488598727	;epanetjs_customers
J43	1.540565445792076	RESIDENTIAL
J43	0.1540565445792076	;epanetjs_customers
J44	3.056982376073719	RESIDENTIAL
J44	0.3056982376073718	;epanetjs_customers
J45	4.676406431779021	RESIDENTIAL
J45	0.4676406431779021	;epanetjs_customers
J46	2.5915406180568805	RESIDENTIAL
J46	0.259154061805688	;epanetjs_customers
J47	3.18341825022619	RESIDENTIAL
J47	0.318341825022619	;epanetjs_customers
J48	4.648025492454179	RESIDENTIAL
J48	0.46480254924541775	;epanetjs_customers
J49	5.328804362312803	RESIDENTIAL
J49	0.5328804362312802	;epanetjs_customers
J5	0.8264149075687633	RESIDENTIAL
J5	0.08264149075687632	;epanetjs_customers
J50	2.718021133000114	RESIDENTIAL
J50	0.27180211330001136	;epanetjs_customers
J51	0.187397013
J52	0.4816407853536331	RESIDENTIAL
J52	0.04816407853536331	;epanetjs_customers
J53	4.176626671189528	RESIDENTIAL
J53	0.41766266711895267	;epanetjs_customers
J54	3.3648891169057222	RESIDENTIAL
J54	0.3364889116905722	;epanetjs_customers
J55	0.1630890549988948	RESIDENTIAL
J55	0.01630890549988948	;epanetjs_customers
J56	0.11803203914614395	RESIDENTIAL
J56	0.011803203914614391	;epanetjs_customers
J57	1.5229490928989935	RESIDENTIAL
J57	0.15229490928989936	;epanetjs_customers
J58	4.802336561441545	RESIDENTIAL
J58	0.4802336561441546	;epanetjs_customers
J59	0.36319017610234416	RESIDENTIAL
J59	0.036319017610234414	;epanetjs_customers
J6	1.4273844489231668	RESIDENTIAL
J6	0.14273844489231668	;epanetjs_customers
J60	0.2068427106103236	RESIDENTIAL
J60	0.02068427106103236	;epanetjs_customers
J61	0.6483384375447971	RESIDENTIAL
J61	0.0648338437544797	;epanetjs_customers
J62	2.381438176970234	RESIDENTIAL
J62	0.23814381769702342	;epanetjs_customers
J63	4.812163521534393	RESIDENTIAL
J63	0.4812163521534394	;epanetjs_customers
J64	4.691961721469687	RESIDENTIAL
J64	0.4691961721469687	;epanetjs_customers
J65	0.9488723457999257	RESIDENTIAL
J65	0.09488723457999257	;epanetjs_customers
J66	3.560543238
J67	0.2992168156910177	RESIDENTIAL
J67	0.029921681569101764	;epanetjs_customers
J68	4.011189528326937	RESIDENTIAL
J68	0.40111895283269366	;epanetjs_customers
J69	0.525741620139206	RESIDENTIAL
J69	0.0525741620139206	;epanetjs_customers
J7	6.887832144536237	RESIDENTIAL
J7	0.6887832144536236	;epanetjs_customers
J70	2.8846046450446967	RESIDENTIAL
J70	0.28846046450446966	;epanetjs_customers
J71	0.2972879587248799	RESIDENTIAL
J71	0.029728795872487987	;epanetjs_customers
J72	0.9116668550182143	RESIDENTIAL
J72	0.09116668550182142	;epanetjs_customers
J73	3.153672447849186	RESIDENTIAL
J73	0.31536724478491857	;epanetjs_customers
J74	3.012713664636489	RESIDENTIAL
J74	0.3012713664636488	;epanetjs_customers
J75	4.320488484399747	RESIDENTIAL
J75	0.43204884843997476	;epanetjs_customers
J76	5.001961296319536	RESIDENTIAL
J76	0.5001961296319536	;epanetjs_customers
J77	0.4109071759269084	RESIDENTIAL
J77	0.04109071759269084	;epanetjs_customers
J78	2.4215527411150255	RESIDENTIAL
J78	0.2421552741115025	;epanetjs_customers
J79	1.8731998929123508	RESIDENTIAL
J79	0.18731998929123508	;epanetjs_customers
J8	0.7035608506587766	RESIDENTIAL
J8	0.07035608506587768	;epanetjs_customers
J80	2.062629063936656	RESIDENTIAL
J80	0.20626290639366554	;epanetjs_customers
J81	2.635192803797484	RESIDENTIAL
J81	0.26351928037974837	;epanetjs_customers
J82	1.5085532001508943	RESIDENTIAL
J82	0.15085532001508942	;epanetjs_customers
J84	1.322601206361274	RESIDENTIAL
J84	0.1322601206361274	;epanetjs_customers
J85	4.139316130903454	RESIDENTIAL
J85	0.4139316130903455	;epanetjs_customers
J87	1.5687675377441643	RESIDENTIAL
J87	0.15687675377441646	;epanetjs_customers
J88	3.652777099767333	RESIDENTIAL
J88	0.3652777099767333	;epanetjs_customers
J89	4.307979274945864	RESIDENTIAL
J89	0.43079792749458645	;epanetjs_customers
J9	5.815627690739292	RESIDENTIAL
J9	0.5815627690739291	;epanetjs_customers
J90	2.4753520465747902	RESIDENTIAL
J90	0.24753520465747905	;epanetjs_customers
J91	0.4820531701995268	RESIDENTIAL
J91	0.04820531701995269	;epanetjs_customers
J92	2.341699510348694	RESIDENTIAL
J92	0.23416995103486943	;epanetjs_customers
J93	0.2198681047839643	RESIDENTIAL
J93	0.02198681047839643	;epanetjs_customers
J94	5.126964578986161	RESIDENTIAL
J94	0.5126964578986163	;epanetjs_customers
J95	0.9093640879055911	RESIDENTIAL
J95	0.0909364087905591	;epanetjs_customers
J96	11.0649891901111	RESIDENTIAL
J96	1.10649891901111	;epanetjs_customers
J97	5.532322084067304	RESIDENTIAL
J97	0.5532322084067305	;epanetjs_customers
J98	1.6843578686336014	RESIDENTIAL
J98	0.16843578686336017	;epanetjs_customers
J99	5.630651369063347	RESIDENTIAL
J99	0.5630651369063348	;epanetjs_customers

[STATUS]
;Id	Status
V1	Closed

[CURVES]
;Id	X	Y

[PATTERNS]
;Id	Multiplier
constant	1
;DEMAND:
RESIDENTIAL	0.4	0.35	0.3	0.4	0.65	1.09	1.4	1.7
RESIDENTIAL	1.45	1.2	0.95	1.2	1.3	1.2	0.95	0.8
RESIDENTIAL	1.09	1.3	1.7	1.3	1.2	1	0.7	0.4

[TIMES]
Duration	24
Hydraulic Timestep	1
Report Timestep	1
Pattern Timestep	1

[REPORT]
Status	FULL
Summary	No
Page	0

[OPTIONS]
Quality	NONE
Unbalanced	CONTINUE 10
Accuracy	0.001
Units	GPM
Headloss	H-W
Demand Multiplier	1
Demand Model	DDA
Emitter Exponent	0.5
Pattern	constant

[BACKDROP]
Units	DEGREES

[COORDINATES]
;Node	X-coord	Y-coord
J129	-79.8999771	43.3379114
J1	-79.9171911	43.3256616
J10	-79.9000935	43.3342813
J100	-79.907276	43.3267376
J101	-79.9140283	43.3190333
J102	-79.9081735	43.3262153
J103	-79.9131739	43.3245397
J104	-79.9122933	43.3184706
J105	-79.9083757	43.3335124
J106	-79.9013513	43.3326731
J107	-79.9136959	43.3198715
J108	-79.9153181	43.3185024
J109	-79.9093071	43.3228191
J11	-79.9187981	43.3210127
J110	-79.9067644	43.3223758
J111	-79.9090452	43.3300317
J112	-79.9061917	43.3220006
J113	-79.9097215	43.320068
J114	-79.9105258	43.3250377
J115	-79.909824	43.3295326
J116	-79.9154581	43.3167195
J117	-79.9051673	43.336547
J118	-79.8991495	43.3335688
J119	-79.9031125	43.333784
J12	-79.9160712	43.3251535
J120	-79.9113013	43.3306081
J121	-79.903213	43.3357379
J122	-79.9085309	43.322246
J13	-79.9008059	43.3323527
J14	-79.9048564	43.3247964
J15	-79.9099774	43.3255744
J16	-79.9046186	43.3361424
J17	-79.9029289	43.3279663
J18	-79.910776	43.3268464
J19	-79.9105968	43.3174219
J2	-79.9147451	43.3245454
J20	-79.909138	43.32522
J21	-79.9118903	43.3259392
J22	-79.9038004	43.3331985
J23	-79.9061655	43.3358465
J24	-79.9185956	43.3266903
J25	-79.9104642	43.329994
J26	-79.914102	43.3240452
J27	-79.9119483	43.3125519
J28	-79.9136326	43.3179403
J123	-79.9029282	43.3384906
J124	-79.9057235	43.3390239
J29	-79.8997712	43.3308952
J125	-79.9085516	43.3375761
J126	-79.902786	43.338358
J3	-79.90747	43.3311682
J30	-79.9176964	43.3122386
J127	-79.902923	43.338254
J31	-79.9101977	43.3279998
J128	-79.9024817	43.33859
J32	-79.8987405	43.3283849
J33	-79.903642	43.3273179
J34	-79.9049296	43.3326106
J35	-79.9115683	43.3292066
J36	-79.8999075	43.3300332
J37	-79.9116905	43.3189412
J38	-79.9153022	43.3191147
J39	-79.8979164	43.3291013
J4	-79.9163231	43.3172539
J40	-79.8995358	43.3291306
J41	-79.9018651	43.3306516
J42	-79.9026869	43.3361151
J43	-79.9013287	43.3315108
J44	-79.9057289	43.3243681
J45	-79.9081591	43.3306488
J46	-79.9115125	43.3136286
J47	-79.9112437	43.3214121
J48	-79.9111621	43.3201543
J49	-79.9080721	43.332591
J5	-79.9033482	43.3255554
J50	-79.9111564	43.3288377
J51	-79.9126951	43.3180001
J52	-79.9013447	43.3351114
J53	-79.9054479	43.3278803
J54	-79.9041932	43.3317653
J55	-79.9147861	43.3184215
J56	-79.8984536	43.3330626
J57	-79.9167399	43.3168746
J58	-79.9057123	43.3299313
J59	-79.8974405	43.3313508
J6	-79.90411	43.3254005
J60	-79.9043009	43.3371963
J61	-79.9156464	43.328867
J62	-79.9033857	43.3311856
J63	-79.9135808	43.3271223
J64	-79.9149229	43.3281552
J65	-79.9103789	43.3208474
J66	-79.9180261	43.3271017
J67	-79.895633	43.3310099
J68	-79.9030259	43.3302829
J69	-79.8976277	43.3301574
J7	-79.9059264	43.333668
J70	-79.9132704	43.3233354
J71	-79.9087554	43.3198268
J72	-79.9030525	43.3246794
J73	-79.9050021	43.330464
J74	-79.9084763	43.3245991
J75	-79.9143342	43.3265995
J76	-79.9099235	43.3212412
J77	-79.9113728	43.3128989
J78	-79.9067383	43.3236137
J79	-79.9220163	43.3241393
J8	-79.9143231	43.3181411
J80	-79.9044076	43.3267534
J81	-79.9091606	43.3258744
J82	-79.911116	43.317758
J83	-79.9119072	43.3133056
J84	-79.9052321	43.3262193
J85	-79.908819	43.3330739
J86	-79.8970717	43.3298233
J87	-79.9126544	43.3252452
J88	-79.9030876	43.325745
J89	-79.9142735	43.3276262
J9	-79.9049355	43.3283007
J90	-79.9029662	43.3314831
J91	-79.9094455	43.3334415
J92	-79.9135136	43.315723
J93	-79.8967734	43.3318577
J94	-79.9120531	43.3220655
J95	-79.9143984	43.3297793
J96	-79.9179672	43.3262101
J97	-79.9058255	43.3273119
J98	-79.9123312	43.3313335
J99	-79.9059606	43.3320282
R1	-79.8996286	43.3377997
R2	-79.9023518	43.33869
T1	-79.9091969	43.3379775

[VERTICES]
;link	X-coord	Y-coord
P43_1	-79.9004107	43.3375387
P43_1	-79.9026838	43.338437
P165	-79.9027104	43.3384087
P165	-79.9026926	43.3384222
P165	-79.9027021	43.3384291
P165	-79.9026965	43.338448
P165	-79.9026792	43.3384534
P165	-79.9026666	43.3384531
P163	-79.9088065	43.338097
P1	-79.9084378	43.3333448
P3	-79.9151731	43.3248389
P3	-79.9154503	43.3249438
P3	-79.9158384	43.3250728
P4	-79.8992477	43.3288097
P4	-79.8989416	43.3285674
P6	-79.908526	43.3297282
P6	-79.9081088	43.3294584
P6	-79.9075989	43.3290673
P6	-79.9069035	43.3285749
P6	-79.9064771	43.3282647
P6	-79.9062267	43.3281231
P7	-79.9135289	43.3248547
P7	-79.913806	43.3251129
P7	-79.9140311	43.325346
P7	-79.9141177	43.3254594
P7	-79.9140657	43.3255853
P7	-79.9137887	43.3257554
P7	-79.9135982	43.3259066
P7	-79.9136155	43.3260641
P7	-79.9138233	43.3262278
P7	-79.9140831	43.3264168
P8	-79.9145161	43.3191147
P11	-79.9065308	43.3315952
P11	-79.9071681	43.3313634
P12	-79.9091016	43.3218557
P14	-79.9169132	43.3279225
P14	-79.9161821	43.3284498
P16	-79.9057606	43.3266307
P16	-79.9058811	43.3268195
P16	-79.9058997	43.3270556
P17	-79.9175809	43.3201314
P17	-79.9167234	43.3195191
P17	-79.9164058	43.3193343
P17	-79.9161041	43.3192187
P17	-79.9157151	43.3191378
P20	-79.9125382	43.3182468
P21	-79.9096432	43.3304398
P21	-79.9096525	43.3305949
P21	-79.9089664	43.331094
P21	-79.9089664	43.3312153
P21	-79.9095134	43.3314716
P21	-79.9097452	43.331647
P21	-79.9099121	43.3316402
P21	-79.9108856	43.3309051
P22	-79.9045754	43.3320618
P23	-79.9078459	43.3217561
P23	-79.9077775	43.3216398
P23	-79.9081085	43.3213159
P23	-79.9086108	43.3208924
P23	-79.9088505	43.320693
P23	-79.9089418	43.3206681
P23	-79.9090217	43.3206764
P23	-79.9094669	43.3209505
P24	-79.9184108	43.3265166
P25	-79.9054435	43.3333748
P26	-79.9095595	43.3257729
P27	-79.8997502	43.3302391
P29	-79.91069	43.3283799
P31	-79.90822	43.3246865
P31	-79.9079963	43.3246865
P31	-79.9078565	43.3245899
P31	-79.9074512	43.324295
P31	-79.9070738	43.3240357
P31	-79.906934	43.3239035
P33	-79.9050189	43.3260641
P34	-79.9086417	43.3320098
P34	-79.9093155	43.3324935
P34	-79.9094042	43.3326611
P35	-79.9066266	43.3222923
P36	-79.9069828	43.3297851
P37	-79.912637	43.3247791
P37	-79.9125678	43.3248421
P37	-79.9125938	43.3251192
P38	-79.9152865	43.3168493
P39	-79.9114205	43.3179864
P40	-79.9167058	43.3261208
P40	-79.916468	43.3263881
P40	-79.9160141	43.3266397
P40	-79.9154089	43.3269699
P40	-79.9151171	43.3271586
P40	-79.9156899	43.327536
P40	-79.9158844	43.3277561
P40	-79.9160682	43.3277561
P40	-79.9172462	43.3268677
P41	-79.9046095	43.3301967
P41	-79.904163	43.3298871
P41	-79.9039398	43.3297298
P41	-79.903877	43.3296385
P41	-79.9037863	43.3295776
P41	-79.9036817	43.3295979
P41	-79.903584	43.3297349
P41	-79.9031096	43.3301003
P42	-79.9116103	43.3318765
P44	-79.901194	43.3325968
P46	-79.9084179	43.3328812
P48	-79.9039005	43.3343256
P48	-79.9052117	43.3351787
P48	-79.9057981	43.3347818
P48	-79.9058633	43.3346455
P48	-79.9051873	43.3341538
P49	-79.9141177	43.3275128
P51	-79.9064657	43.3234001
P51	-79.9061931	43.3232527
P51	-79.9060743	43.3231611
P51	-79.9060813	43.3230188
P51	-79.9062001	43.322851
P51	-79.9064867	43.3226069
P52	-79.9123565	43.3217794
P52	-79.9125024	43.3215472
P52	-79.91263	43.3212753
P52	-79.9125753	43.3211625
P52	-79.9122015	43.3209237
P52	-79.9114539	43.3203665
P53	-79.9124703	43.3238553
P53	-79.912211	43.3240221
P53	-79.911882	43.3241382
P53	-79.9112338	43.324363
P57	-79.912746	43.3152979
P57	-79.9123525	43.3149931
P57	-79.9121949	43.3145319
P57	-79.912236	43.314161
P57	-79.912236	43.3137423
P57	-79.9121373	43.3134911
P58	-79.9141177	43.3287347
P58	-79.9137367	43.3290119
P58	-79.9135808	43.3290937
P58	-79.913425	43.3290685
P58	-79.9132865	43.328867
P58	-79.913096	43.328615
P58	-79.9130527	43.3285143
P58	-79.9139791	43.3278277
P59	-79.9165702	43.3252825
P59	-79.9168363	43.3253955
P59	-79.9170691	43.3255729
P61	-79.903848	43.3308273
P61	-79.9046359	43.3306255
P62	-79.9102888	43.3222128
P63	-79.9075054	43.3264402
P64	-79.907201	43.322543
P64	-79.9078903	43.3230529
P64	-79.9085452	43.323546
P64	-79.9090392	43.3239555
P64	-79.9091656	43.324106
P64	-79.9090622	43.3242648
P65	-79.9121519	43.3281561
P65	-79.9116151	43.3285324
P65	-79.9114297	43.3286531
P66	-79.9129737	43.3266421
P66	-79.9125637	43.3263581
P66	-79.912144	43.3260315
P68	-79.9063768	43.3339977
P68	-79.9065275	43.3341267
P68	-79.9067403	43.334146
P68	-79.9068822	43.3340106
P68	-79.9072989	43.3336623
P68	-79.9075472	43.3330174
P69	-79.9077174	43.332333
P69	-79.9074781	43.3321718
P69	-79.9072564	43.3321395
P69	-79.9069549	43.332275
P69	-79.9066535	43.3325587
P69	-79.9064762	43.3330231
P69	-79.9063254	43.3333971
P73	-79.9105968	43.3174311
P74	-79.905689	43.327651
P75	-79.9052951	43.3325192
P76	-79.9118851	43.3188178
P77	-79.9151308	43.3284576
P77	-79.9154165	43.3286969
P78	-79.9138777	43.3180575
P79	-79.9184338	43.3259625
P79	-79.9188102	43.3257822
P79	-79.9188561	43.3257154
P79	-79.9187919	43.3256353
P79	-79.9182686	43.325268
P79	-79.9179013	43.3250075
P79	-79.9174882	43.3247136
P79	-79.9172312	43.3245333
P79	-79.9169374	43.3243129
P79	-79.9168364	43.3242461
P79	-79.9167079	43.3242395
P79	-79.9165243	43.3244064
P79	-79.9161754	43.3248272
P80	-79.9119363	43.3295636
P80	-79.9121383	43.3298313
P80	-79.9121311	43.3299835
P80	-79.9120012	43.3300937
P83	-79.9108159	43.3274993
P83	-79.9107361	43.3276153
P85	-79.9109405	43.3296633
P85	-79.9112291	43.3294533
P87	-79.90277	43.3283155
P87	-79.901973	43.3289563
P87	-79.9011345	43.3296746
P87	-79.9007989	43.3297509
P87	-79.900327	43.3297738
P87	-79.9001487	43.329873
P91	-79.910991	43.3303824
P91	-79.9106663	43.3301462
P92	-79.9018651	43.3330697
P92	-79.9020853	43.3331994
P92	-79.9023056	43.3331231
P92	-79.9028089	43.3327341
P92	-79.9038157	43.3320247
P94	-79.9033358	43.3259526
P96	-79.9201115	43.3255875
P96	-79.9189638	43.326391
P97	-79.9131723	43.3188361
P99	-79.8991667	43.3293795
P99	-79.8991577	43.3295235
P99	-79.8995898	43.3297986
P100	-79.8997573	43.3314831
P100	-79.8998097	43.3316433
P100	-79.9001243	43.3318645
P100	-79.9006067	43.3321925
P101	-79.9106663	43.3260993
P104	-79.9107883	43.3198757
P104	-79.9104874	43.31967
P104	-79.9103142	43.319544
P104	-79.9101956	43.3195108
P104	-79.9100862	43.3195506
P104	-79.9097671	43.3198757
P105	-79.9120156	43.3311056
P109	-79.9151803	43.3243528
P109	-79.9154581	43.3242068
P109	-79.9156381	43.3240122
P109	-79.9159211	43.3237428
P109	-79.9159571	43.323638
P109	-79.9157925	43.3234921
P109	-79.9155661	43.3233312
P109	-79.9153655	43.3232114
P109	-79.9152421	43.3232077
P109	-79.9151186	43.3233012
P109	-79.9147534	43.3235819
P109	-79.9144139	43.3238176
P110	-79.9078155	43.334656
P110	-79.9071291	43.3351648
P113	-79.9119312	43.3219284
P114	-79.9146459	43.3278844
P114	-79.914845	43.3280419
P116	-79.9030758	43.3277222
P119	-79.9094698	43.3263677
P119	-79.9096891	43.3265998
P119	-79.9101279	43.3269117
P122	-79.9060864	43.3241081
P123	-79.9144679	43.3243276
P124	-79.9139384	43.330114
P124	-79.9133837	43.3305266
P124	-79.9129236	43.3308704
P124	-79.9126842	43.3310584
P126	-79.9092585	43.329944
P129	-79.9136848	43.3243004
P129	-79.913451	43.3244074
P130	-79.9048245	43.3292371
P130	-79.9042808	43.3288981
P130	-79.9042586	43.3287689
P130	-79.904536	43.328559
P132	-79.9043565	43.3327513
P133	-79.9158787	43.3138031
P134	-79.9154451	43.3181154
P134	-79.9155721	43.3179074
P135	-79.9096094	43.3275936
P135	-79.9091806	43.3272744
P135	-79.9087119	43.326948
P137	-79.9111792	43.3227692
P137	-79.9103687	43.3233755
P137	-79.9102089	43.3234668
P137	-79.9100948	43.3234419
P137	-79.9095126	43.3229935
P139	-79.9058761	43.3255076
P139	-79.9060864	43.3256376
P139	-79.9066961	43.3251635
P139	-79.9067171	43.3250258
P139	-79.9062546	43.3247582
P140	-79.9148018	43.3294813
P144	-79.9100472	43.3255019
P145	-79.9052138	43.3245899
P145	-79.9049931	43.3246664
P147	-79.9023717	43.3275916
P147	-79.9021826	43.3275654
P147	-79.9017595	43.3279256
P147	-79.9008412	43.3287049
P147	-79.9006972	43.328849
P147	-79.9003731	43.3289276
P147	-79.8998959	43.3289538
P147	-79.8996618	43.3290389
P148	-79.9152863	43.318693
P149	-79.9069195	43.3275277
P149	-79.9071791	43.3276491
P149	-79.9077354	43.3280335
P149	-79.9090545	43.3289728
P150	-79.9004853	43.3309215
P151	-79.9136142	43.3236903
P151	-79.9139468	43.3239404
P153	-79.9092623	43.3332674
P154	-79.9089014	43.325976
P155	-79.9177233	43.3260569
P156	-79.902405	43.3262686
P156	-79.9024919	43.3265124
P157	-79.9145766	43.3264231
P157	-79.9149662	43.3262278
P157	-79.9152953	43.3260767
P157	-79.915555	43.3259318
P157	-79.9157542	43.3257995
P157	-79.9158494	43.3256231
P158	-79.9129045	43.322924
P159	-79.9064553	43.3304423
P159	-79.9064386	43.3306009
P159	-79.9058264	43.3310462
P159	-79.905273	43.3314488
P159	-79.905273	43.3315586
P160	-79.9196332	43.3217981
P160	-79.9201831	43.3224056
P160	-79.9212626	43.3234428
P160	-79.9216496	43.3238133
P161	-79.9053351	43.3390062
P162	-79.9062333	43.3387237
P162	-79.9073014	43.3381676
P162	-79.9077869	43.3378056
P164	-79.9081875	43.3370817
P164	-79.9075927	43.3367286
P164	-79.9073136	43.336552
P164	-79.9067916	43.3362872

;[CUSTOMERS]
;Id	X-coord	Y-coord	BaseDemand	PipeId	JunctionId	SnapX	SnapY
;1	-79.915526	43.313426		P133	J30	-79.915987	43.31371
;2	-79.916274	43.31386		P133	J30	-79.916005	43.313694
;3	-79.916586	43.314087		P133	J30	-79.915981	43.313715
;4	-79.916183	43.314041		P133	J30	-79.915852	43.313825
;5	-79.916151	43.314339		P133	J92	-79.915634	43.314002
;6	-79.91504	43.313697		P133	J92	-79.915578	43.314048
;7	-79.915766	43.31476		P133	J92	-79.915175	43.314374
;8	-79.915419	43.314855		P133	J92	-79.914955	43.314553
;9	-79.914941	43.315125		P133	J92	-79.914558	43.314875
;10	-79.915001	43.315646		P133	J92	-79.914229	43.315142
;11	-79.914552	43.31556		P133	J92	-79.914088	43.315257
;12	-79.914684	43.315879		P133	J92	-79.913928	43.315386
;13	-79.918458	43.316942		P67	J57	-79.91674	43.316875
;14	-79.917793	43.318043		P67	J4	-79.916367	43.317214
;15	-79.916129	43.316814		P138	J4	-79.915912	43.317
;16	-79.914846	43.318156		P54	J55	-79.914786	43.318422
;17	-79.914734	43.318776		P8	J38	-79.914734	43.319115
;18	-79.920682	43.321061		P160	J11	-79.919535	43.321706
;19	-79.922208	43.323328		P160	J79	-79.921533	43.323701
;20	-79.919034	43.319855		P17	J11	-79.918121	43.320522
;21	-79.9173	43.32137		P17	J11	-79.918291	43.320646
;22	-79.917688	43.32454		P79	J12	-79.917472	43.324703
;23	-79.917359	43.324321		P79	J12	-79.917147	43.32447
;24	-79.917433	43.324374		P79	J12	-79.91722	43.324525
;25	-79.917598	43.32449		P79	J12	-79.917392	43.324646
;26	-79.917519	43.324433		P79	J12	-79.917311	43.32459
;27	-79.915584	43.323009		P109	J26	-79.915365	43.323211
;28	-79.915668	43.323094		P109	J26	-79.915467	43.323272
;29	-79.915744	43.323161		P109	J26	-79.915558	43.323326
;30	-79.915509	43.322929		P109	J26	-79.915365	43.323211
;31	-79.915331	43.322933		P109	J26	-79.915315	43.32321
;32	-79.915219	43.322927		P109	J26	-79.915242	43.323208
;33	-79.915064	43.323002		P109	J26	-79.915242	43.323208
;34	-79.914953	43.323087		P109	J26	-79.915186	43.32325
;35	-79.914847	43.323176		P109	J26	-79.915076	43.323334
;36	-79.916306	43.323519		P109	J2	-79.915957	43.323638
;37	-79.916007	43.323322		P109	J2	-79.915785	43.323487
;38	-79.916197	43.323439		P109	J2	-79.91592	43.323605
;39	-79.91607	43.323383		P109	J2	-79.915831	43.323526
;40	-79.916326	43.323628		P109	J2	-79.915957	43.323638
;41	-79.916337	43.323704		P109	J2	-79.915957	43.323638
;42	-79.916235	43.323824		P109	J2	-79.915921	43.323743
;43	-79.917063	43.324068		P79	J12	-79.916839	43.324248
;44	-79.917132	43.324131		P79	J12	-79.916919	43.324301
;45	-79.917213	43.324195		P79	J12	-79.91699	43.324352
;46	-79.916918	43.323976		P79	J12	-79.916836	43.324246
;47	-79.916794	43.323966		P79	J12	-79.916767	43.324243
;48	-79.916615	43.323987		P79	J12	-79.916708	43.32424
;49	-79.917276	43.324262		P79	J12	-79.917067	43.32441
;50	-79.916839	43.32452		P79	J12	-79.917032	43.324384
;51	-79.916481	43.324067		P79	J12	-79.916708	43.32424
;52	-79.916385	43.324166		P79	J12	-79.916631	43.324309
;53	-79.91612	43.3239		P109	J2	-79.91589	43.323772
;54	-79.916038	43.323996		P109	J2	-79.915796	43.323862
;55	-79.915948	43.324086		P109	J2	-79.915703	43.32395
;56	-79.9163	43.324259		P79	J12	-79.916536	43.324396
;57	-79.91622	43.324352		P79	J12	-79.916476	43.324464
;58	-79.916143	43.324439		P79	J12	-79.916403	43.324553
;59	-79.916042	43.324532		P79	J12	-79.916319	43.324654
;60	-79.915901	43.323276		P109	J26	-79.9157	43.323426
;61	-79.915827	43.323212		P109	J26	-79.915618	43.323368
;62	-79.915278	43.323465		P109	J26	-79.915082	43.32333
;63	-79.9154	43.323536		P109	J26	-79.915622	43.323371
;64	-79.915597	43.323712		P109	J2	-79.915822	43.323837
;65	-79.915495	43.323633		P109	J2	-79.915737	43.323453
;66	-79.915398	43.323854		P109	J2	-79.915654	43.323997
;67	-79.914756	43.32325		P109	J26	-79.914982	43.323406
;68	-79.914646	43.323335		P109	J26	-79.914872	43.323491
;69	-79.915111	43.323645		P109	J26	-79.914879	43.323485
;70	-79.915012	43.323731		P109	J26	-79.914773	43.323567
;71	-79.914901	43.323798		P109	J26	-79.914682	43.323631
;72	-79.91479	43.323878		P109	J26	-79.914569	43.32371
;73	-79.915878	43.324177		P109	J2	-79.915608	43.324045
;74	-79.915316	43.323943		P109	J2	-79.915582	43.324073
;75	-79.91576	43.324269		P109	J2	-79.915513	43.324148
;76	-79.91567	43.324351		P109	J2	-79.915458	43.324207
;77	-79.915557	43.324432		P109	J2	-79.915376	43.32425
;78	-79.915238	43.32453		P109	J2	-79.915114	43.324382
;79	-79.915203	43.324023		P109	J2	-79.915496	43.324166
;80	-79.915092	43.324092		P109	J2	-79.915292	43.324294
;81	-79.91476	43.324152		P123	J2	-79.914482	43.324339
;82	-79.914878	43.324237		P109	J2	-79.91503	43.324419
;83	-79.914652	43.324074		P123	J26	-79.914381	43.32426
;84	-79.920265	43.3249		P96	J79	-79.920657	43.325173
;85	-79.919189	43.325613		P79	J96	-79.918856	43.325715
;86	-79.919065	43.325505		P79	J96	-79.918792	43.325635
;87	-79.918873	43.325407		P79	J96	-79.918677	43.325555
;88	-79.91881	43.325343		P79	J96	-79.9186	43.325501
;89	-79.918716	43.325291		P79	J96	-79.918516	43.325442
;90	-79.918985	43.32545		P79	J96	-79.918765	43.325616
;91	-79.919185	43.325684		P79	J96	-79.918856	43.325715
;92	-79.919177	43.325803		P79	J96	-79.918856	43.325715
;93	-79.919105	43.325931		P96	J24	-79.919353	43.326118
;94	-79.918166	43.324892		P79	J96	-79.917958	43.325047
;95	-79.918077	43.324834		P79	J96	-79.917872	43.324987
;96	-79.918012	43.324768		P79	J12	-79.917793	43.324931
;97	-79.918393	43.325063		P79	J96	-79.918192	43.325213
;98	-79.918555	43.325178		P79	J96	-79.918355	43.325329
;99	-79.918642	43.325239		P79	J96	-79.918442	43.32539
;100	-79.918483	43.325121		P79	J96	-79.918279	43.325275
;101	-79.918322	43.32501		P79	J96	-79.918119	43.325162
;102	-79.918239	43.324948		P79	J96	-79.918034	43.325101
;103	-79.917849	43.324654		P79	J12	-79.917632	43.324816
;104	-79.917931	43.324707		P79	J12	-79.91771	43.324871
;105	-79.917756	43.324605		P79	J12	-79.91755	43.324758
;106	-79.917658	43.325177		P79	J96	-79.917893	43.325002
;107	-79.917761	43.325253		P79	J96	-79.917998	43.325076
;108	-79.917331	43.324947		P79	J12	-79.917568	43.324771
;109	-79.917439	43.325023		P79	J12	-79.917676	43.324847
;110	-79.917548	43.3251		P79	J12	-79.917784	43.324924
;111	-79.918198	43.325554		P79	J96	-79.918428	43.32538
;112	-79.918098	43.325474		P79	J96	-79.918322	43.325305
;113	-79.918417	43.325717		P79	J96	-79.918577	43.325894
;114	-79.918299	43.325643		P79	J96	-79.918542	43.32546
;115	-79.918094	43.325802		P79	J96	-79.918317	43.326024
;116	-79.917873	43.325326		P79	J96	-79.918106	43.325152
;117	-79.917982	43.325406		P79	J96	-79.918216	43.325231
;118	-79.917368	43.325405		P59	J1	-79.917103	43.325598
;119	-79.917488	43.325479		P155	J1	-79.917211	43.325676
;120	-79.917579	43.325566		P155	J1	-79.917315	43.325754
;121	-79.917683	43.325643		P155	J1	-79.917419	43.325831
;122	-79.917787	43.325724		P155	J1	-79.917526	43.32591
;123	-79.917973	43.325877		P155	J96	-79.917744	43.32607
;124	-79.918972	43.326007		P79	J96	-79.918781	43.325796
;125	-79.918805	43.326042		P79	J96	-79.918643	43.325863
;126	-79.918693	43.326113		P79	J96	-79.91852	43.325921
;127	-79.91854	43.32616		P79	J96	-79.918374	43.325994
;128	-79.918428	43.326231		P79	J96	-79.918254	43.326058
;129	-79.91801	43.326544		P24	J96	-79.918219	43.326384
;130	-79.917518	43.326191		P155	J96	-79.917715	43.326051
;131	-79.917439	43.326285		P40	J96	-79.917712	43.326443
;132	-79.917905	43.326621		P40	J96	-79.917668	43.326483
;133	-79.917348	43.326372		P40	J96	-79.917618	43.326529
;134	-79.917802	43.326706		P40	J96	-79.917571	43.326572
;135	-79.917734	43.32681		P40	J96	-79.917475	43.326659
;136	-79.917643	43.326901		P40	J96	-79.917378	43.326747
;137	-79.917538	43.326977		P40	J96	-79.917286	43.326831
;138	-79.917444	43.327068		P40	J96	-79.917204	43.3269
;139	-79.917342	43.327147		P40	J96	-79.917101	43.326978
;140	-79.917019	43.3247		P79	J12	-79.917236	43.324536
;141	-79.917237	43.324861		P79	J12	-79.917459	43.324693
;142	-79.917108	43.324789		P79	J12	-79.917343	43.324612
;143	-79.91674	43.324604		P79	J12	-79.916462	43.324482
;144	-79.916647	43.324703		P79	J12	-79.916377	43.324584
;145	-79.917146	43.325248		P59	J1	-79.916883	43.325431
;146	-79.917022	43.325179		P59	J1	-79.916836	43.325396
;147	-79.916745	43.325062		P59	J12	-79.91657	43.325283
;148	-79.916893	43.325111		P59	J1	-79.916708	43.325341
;149	-79.916567	43.324801		P79	J12	-79.916296	43.324682
;150	-79.916485	43.324899		P79	J12	-79.916214	43.32478
;151	-79.91595	43.324626		P79	J12	-79.916238	43.324752
;152	-79.916441	43.325013		P59	J12	-79.916339	43.325223
;153	-79.917263	43.325334		P59	J1	-79.916998	43.325518
;154	-79.916647	43.32563		P59	J1	-79.916907	43.325449
;155	-79.916754	43.325712		P40	J1	-79.916995	43.325847
;156	-79.916532	43.325554		P59	J1	-79.916704	43.325339
;157	-79.91626	43.325434		P59	J12	-79.91636	43.325228
;158	-79.916192	43.325545		P157	J12	-79.915919	43.325477
;159	-79.91656	43.325834		P40	J1	-79.916842	43.325992
;160	-79.916498	43.325943		P40	J1	-79.916747	43.326082
;161	-79.916154	43.325666		P157	J12	-79.915863	43.325593
;162	-79.916082	43.325784		P157	J12	-79.915805	43.325705
;163	-79.915998	43.325902		P157	J12	-79.915754	43.3258
;164	-79.915911	43.324738		P79	J12	-79.916175	43.324827
;165	-79.915851	43.324839		P3	J12	-79.915727	43.325036
;166	-79.915546	43.324701		P3	J12	-79.915389	43.324921
;167	-79.915385	43.32463		P3	J2	-79.915222	43.324858
;168	-79.915656	43.325261		P3	J12	-79.915785	43.325055
;169	-79.915327	43.325203		P3	J12	-79.915483	43.324955
;170	-79.914756	43.324916		P3	J2	-79.915005	43.324724
;171	-79.914655	43.32482		P3	J2	-79.914886	43.324642
;172	-79.914896	43.324999		P3	J2	-79.915136	43.324814
;173	-79.915026	43.325092		P3	J2	-79.9152	43.324849
;174	-79.915177	43.325155		P3	J2	-79.915354	43.324907
;175	-79.915614	43.325382		P157	J12	-79.915926	43.32546
;176	-79.915555	43.325507		P157	J12	-79.915867	43.325585
;177	-79.915483	43.325621		P157	J12	-79.915801	43.325712
;178	-79.915377	43.325724		P157	J12	-79.9156	43.325902
;179	-79.915228	43.3258		P157	J12	-79.915437	43.325998
;180	-79.91508	43.325877		P157	J75	-79.915265	43.326091
;181	-79.914911	43.325946		P157	J75	-79.915102	43.326166
;182	-79.917228	43.325975		P155	J1	-79.917425	43.325835
;183	-79.917145	43.326068		P40	J1	-79.916904	43.325933
;184	-79.917047	43.32617		P40	J1	-79.9168	43.326032
;185	-79.916973	43.32625		P40	J1	-79.916719	43.326108
;186	-79.917264	43.326468		P40	J96	-79.917521	43.326617
;187	-79.917178	43.326557		P40	J96	-79.917428	43.326702
;188	-79.916885	43.326347		P40	J1	-79.916617	43.326221
;189	-79.916806	43.32644		P40	J1	-79.916535	43.326313
;190	-79.916705	43.326522		P40	J1	-79.916468	43.326388
;191	-79.916611	43.326609		P40	J1	-79.916412	43.326419
;192	-79.916409	43.326033		P40	J1	-79.916673	43.326157
;193	-79.916322	43.326128		P40	J1	-79.916588	43.326253
;194	-79.916222	43.326211		P40	J1	-79.916506	43.326345
;195	-79.916128	43.326297		P40	J1	-79.916313	43.326474
;196	-79.915997	43.32636		P40	J1	-79.916189	43.326543
;197	-79.91709	43.326648		P40	J96	-79.917333	43.326789
;198	-79.917007	43.326735		P40	J96	-79.917222	43.326886
;199	-79.916894	43.326818		P40	J96	-79.917111	43.32697
;200	-79.916788	43.326896		P40	J96	-79.917006	43.327049
;201	-79.916678	43.326975		P40	J96	-79.916899	43.32713
;202	-79.917247	43.32723		P40	J96	-79.916998	43.327055
;203	-79.917136	43.327307		P40	J96	-79.916891	43.327135
;204	-79.916494	43.326684		P40	J1	-79.916288	43.326488
;205	-79.916361	43.32675		P40	J1	-79.91616	43.326559
;206	-79.916215	43.326815		P40	J1	-79.916025	43.326634
;207	-79.916088	43.3269		P40	J1	-79.91589	43.326708
;208	-79.915944	43.326972		P40	J1	-79.91575	43.326784
;209	-79.916569	43.327041		P40	J96	-79.916801	43.327204
;210	-79.916456	43.327117		P40	J96	-79.916694	43.327284
;211	-79.916362	43.327202		P40	J96	-79.91659	43.327362
;212	-79.916256	43.327285		P40	J96	-79.916482	43.327444
;213	-79.915889	43.326003		P157	J12	-79.915688	43.325843
;214	-79.91576	43.326107		P157	J12	-79.915555	43.325932
;215	-79.915595	43.326178		P157	J12	-79.915417	43.326009
;216	-79.915445	43.326262		P157	J75	-79.915287	43.32608
;217	-79.915882	43.326431		P40	J1	-79.916069	43.326609
;218	-79.915764	43.326494		P40	J1	-79.91595	43.326675
;219	-79.915632	43.326554		P40	J1	-79.915826	43.326742
;220	-79.915282	43.326334		P157	J75	-79.915126	43.326154
;221	-79.915512	43.32662		P40	J1	-79.915706	43.326808
;222	-79.914756	43.326028		P157	J75	-79.914952	43.326235
;223	-79.914598	43.326103		P157	J75	-79.914797	43.326313
;224	-79.915107	43.326413		P157	J75	-79.914943	43.32624
;225	-79.914967	43.326494		P157	J75	-79.914796	43.326313
;226	-79.914821	43.326579		P157	J75	-79.914642	43.32639
;227	-79.915381	43.326679		P40	J1	-79.915583	43.326875
;228	-79.915262	43.326745		P40	J1	-79.915463	43.32694
;229	-79.915798	43.327031		P40	J1	-79.915618	43.326856
;230	-79.915775	43.327328		P40	J96	-79.915594	43.327473
;231	-79.915659	43.327229		P40	J1	-79.915463	43.327386
;232	-79.91555	43.327149		P40	J1	-79.915365	43.326998
;233	-79.915142	43.326813		P40	J1	-79.915367	43.326997
;234	-79.914996	43.326876		P40	J1	-79.915242	43.327078
;235	-79.914673	43.326667		P157	J75	-79.914457	43.32651
;236	-79.91484	43.326971		P40	J1	-79.915117	43.327159
;237	-79.914756	43.327132		P40	J1	-79.915117	43.327159
;238	-79.91482	43.3273		P40	J1	-79.915117	43.327159
;239	-79.917038	43.327387		P40	J96	-79.916789	43.327212
;240	-79.916928	43.327465		P40	J96	-79.916683	43.327293
;241	-79.916825	43.327553		P40	J96	-79.916572	43.327376
;242	-79.916717	43.327615		P40	J96	-79.916478	43.327447
;243	-79.916149	43.327359		P40	J96	-79.91638	43.327521
;244	-79.916044	43.327438		P40	J96	-79.916275	43.3276
;245	-79.915928	43.327506		P40	J96	-79.915741	43.327594
;246	-79.916594	43.327681		P40	J96	-79.916373	43.327526
;247	-79.916492	43.327773		P40	J96	-79.916261	43.327611
;248	-79.916387	43.327895		P40	J96	-79.916126	43.327712
;249	-79.91625	43.328		P40	J96	-79.916068	43.327756
;250	-79.916058	43.328031		P40	J96	-79.916058	43.327756
;251	-79.915336	43.327654		P40	J96	-79.915576	43.327461
;252	-79.915683	43.327949		P40	J96	-79.915884	43.327756
;253	-79.915459	43.327754		P40	J96	-79.915759	43.327614
;254	-79.91557	43.327841		P40	J96	-79.915846	43.327712
;255	-79.915087	43.327495		P40	J1	-79.915331	43.327299
;256	-79.914982	43.327408		P40	J1	-79.915213	43.327222
;257	-79.915217	43.327577		P40	J1	-79.915458	43.327383
;258	-79.914563	43.327515		P114	J89	-79.914349	43.327678
;259	-79.914677	43.327603		P114	J89	-79.914469	43.327762
;260	-79.914921	43.327787		P114	J64	-79.914705	43.327931
;261	-79.915146	43.327949		P114	J64	-79.914854	43.328055
;262	-79.915035	43.327872		P114	J64	-79.914816	43.328019
;263	-79.914782	43.327678		P114	J89	-79.914576	43.327836
;264	-79.915855	43.328042		P40	J96	-79.915884	43.327756
;265	-79.915297	43.328159		P77	J64	-79.915	43.328267
;266	-79.915451	43.328352		P77	J64	-79.915197	43.328513
;267	-79.915364	43.328264		P77	J64	-79.915071	43.328371
;268	-79.915839	43.328374		P14	J61	-79.916074	43.328534
;269	-79.915661	43.328491		P14	J61	-79.915911	43.328661
;270	-79.915223	43.328055		P77	J64	-79.914928	43.328162
;271	-79.914569	43.328086		P114	J64	-79.914749	43.327966
;272	-79.914988	43.328686		P77	J64	-79.915225	43.328536
;273	-79.914884	43.328481		P77	J64	-79.915094	43.328404
;274	-79.914775	43.328551		P58	J64	-79.914576	43.328405
;275	-79.914653	43.328644		P58	J64	-79.914451	43.328495
;276	-79.915248	43.328786		P77	J61	-79.915405	43.328687
;277	-79.91514	43.328864		P77	J61	-79.915411	43.328693
;278	-79.91492	43.329007		P140	J61	-79.915187	43.329201
;279	-79.914644	43.329233		P140	J95	-79.914894	43.329415
;280	-79.911832	43.31183		P2	J27	-79.911948	43.312552
;281	-79.909936	43.312821		P2	J77	-79.911373	43.312899
;282	-79.910265	43.313083		P2	J77	-79.911373	43.312899
;283	-79.910091	43.312935		P2	J77	-79.911373	43.312899
;284	-79.913374	43.31482		P57	J92	-79.912827	43.315343
;285	-79.914435	43.316013		P133	J92	-79.913726	43.315551
;286	-79.914127	43.316299		P81	J92	-79.913382	43.315834
;287	-79.913116	43.315158		P57	J92	-79.912888	43.315376
;288	-79.912173	43.315364		P57	J92	-79.912523	43.315125
;289	-79.912192	43.316278		P81	J92	-79.912577	43.316518
;290	-79.910694	43.313778		P95	J46	-79.911512	43.313629
;291	-79.909606	43.314818		P95	J46	-79.911512	43.313629
;292	-79.911414	43.316204		P81	J82	-79.912298	43.316755
;293	-79.913453	43.317324		P78	J28	-79.913633	43.31794
;294	-79.913764	43.318409		P128	J8	-79.914209	43.318487
;295	-79.911828	43.317853		P39	J82	-79.91159	43.31808
;296	-79.912151	43.318879		P76	J37	-79.911956	43.318758
;297	-79.911422	43.316953		P81	J82	-79.911792	43.317184
;298	-79.910677	43.317169		P73	J19	-79.910597	43.317422
;299	-79.910448	43.31771		P73	J19	-79.910701	43.317497
;300	-79.911203	43.318325		P39	J82	-79.911507	43.318035
;301	-79.911628	43.318577		P76	J37	-79.91194	43.318771
;302	-79.910777	43.318556		P19	J82	-79.910439	43.318352
;303	-79.909652	43.318001		P19	J82	-79.910355	43.318425
;304	-79.908726	43.315724		P73	J19	-79.910597	43.317422
;305	-79.908851	43.317433		P73	J19	-79.910597	43.317431
;306	-79.912248	43.319699		P76	J37	-79.91169	43.318941
;307	-79.913015	43.320096		P143	J107	-79.913696	43.319872
;308	-79.911841	43.320365		P52	J48	-79.911642	43.320507
;309	-79.911963	43.320448		P52	J48	-79.911758	43.320593
;310	-79.912886	43.321082		P52	J94	-79.912575	43.321163
;311	-79.912718	43.320963		P52	J94	-79.91252	43.321127
;312	-79.912582	43.320893		P52	J94	-79.912395	43.321048
;313	-79.9122	43.320615		P52	J48	-79.911989	43.320765
;314	-79.912361	43.320713		P52	J48	-79.912135	43.320874
;315	-79.912467	43.320808		P52	J94	-79.912273	43.320969
;316	-79.91209	43.320525		P52	J48	-79.911873	43.320679
;317	-79.912054	43.321145		P52	J94	-79.912269	43.320967
;318	-79.911912	43.321042		P52	J48	-79.912142	43.320879
;319	-79.911853	43.321001		P52	J48	-79.912085	43.320837
;320	-79.911968	43.321082		P52	J48	-79.912196	43.32092
;321	-79.91304	43.321188		P52	J94	-79.91263	43.321275
;322	-79.912997	43.321356		P52	J94	-79.91263	43.321275
;323	-79.912883	43.321461		P52	J94	-79.912578	43.321385
;324	-79.91281	43.321577		P52	J94	-79.912522	43.321505
;325	-79.91273	43.321724		P52	J94	-79.91245	43.321631
;326	-79.912657	43.321832		P52	J94	-79.912381	43.32174
;327	-79.912295	43.32128		P52	J94	-79.912497	43.321113
;328	-79.912242	43.321415		P52	J94	-79.912531	43.321487
;329	-79.912013	43.321594		P113	J94	-79.911741	43.321786
;330	-79.911896	43.321518		P113	J47	-79.911632	43.321704
;331	-79.912098	43.321698		P52	J94	-79.912314	43.321819
;332	-79.91175	43.319342		P76	J37	-79.91169	43.318941
;333	-79.910524	43.31939		P104	J113	-79.910314	43.319544
;334	-79.910992	43.319721		P104	J48	-79.910788	43.319876
;335	-79.910875	43.319636		P104	J48	-79.91067	43.319795
;336	-79.910633	43.319479		P104	J113	-79.910429	43.319627
;337	-79.91075	43.319557		P104	J48	-79.910549	43.319712
;338	-79.911472	43.320076		P52	J48	-79.911263	43.320228
;339	-79.911207	43.319899		P104	J48	-79.911009	43.32004
;340	-79.911344	43.319995		P104	J48	-79.911141	43.320139
;341	-79.911694	43.320256		P52	J48	-79.911495	43.320397
;342	-79.911586	43.320165		P52	J48	-79.911381	43.320314
;343	-79.911108	43.319801		P104	J48	-79.910893	43.319954
;344	-79.910666	43.32012		P104	J48	-79.910896	43.319956
;345	-79.910432	43.319951		P104	J48	-79.910651	43.319782
;346	-79.910551	43.320039		P104	J48	-79.910774	43.319866
;347	-79.910779	43.320209		P9	J48	-79.910971	43.320324
;348	-79.910547	43.320324		P9	J48	-79.9108	43.320475
;349	-79.910445	43.320424		P9	J65	-79.910691	43.320571
;350	-79.910382	43.319311		P104	J113	-79.910266	43.31953
;351	-79.91018	43.319286		P104	J113	-79.910196	43.319511
;352	-79.909989	43.319334		P104	J113	-79.910128	43.319536
;353	-79.90984	43.319431		P104	J113	-79.910081	43.319556
;354	-79.90978	43.319545		P104	J113	-79.909986	43.319652
;355	-79.909665	43.319639		P104	J113	-79.909886	43.319754
;356	-79.909573	43.319728		P104	J113	-79.909798	43.319845
;357	-79.910322	43.319867		P104	J48	-79.910535	43.319702
;358	-79.910206	43.319787		P104	J113	-79.909973	43.319666
;359	-79.91017	43.320074		P104	J113	-79.909733	43.320019
;360	-79.910132	43.320208		P104	J113	-79.909721	43.320068
;361	-79.910022	43.320288		P98	J65	-79.909794	43.32048
;362	-79.909462	43.319816		P104	J113	-79.909767	43.319876
;363	-79.909361	43.319907		P98	J71	-79.909157	43.320079
;364	-79.909119	43.320407		P98	J71	-79.909358	43.320206
;365	-79.911487	43.32074		P52	J48	-79.911727	43.32057
;366	-79.911545	43.320781		P52	J48	-79.911783	43.320612
;367	-79.911187	43.320483		P52	J48	-79.9114	43.320328
;368	-79.911429	43.320699		P52	J48	-79.91167	43.320528
;369	-79.91134	43.320647		P52	J48	-79.911591	43.320469
;370	-79.91176	43.320941		P52	J48	-79.911998	43.320772
;371	-79.911625	43.32085		P52	J48	-79.91187	43.320676
;372	-79.91137	43.321127		P136	J47	-79.911119	43.321331
;373	-79.911252	43.321056		P136	J47	-79.911005	43.321256
;374	-79.91114	43.320986		P136	J47	-79.910895	43.321184
;375	-79.911085	43.32057		P9	J48	-79.910851	43.32043
;376	-79.910805	43.320757		P9	J65	-79.910612	43.320641
;377	-79.911065	43.32088		P136	J65	-79.910781	43.32111
;378	-79.910926	43.320827		P136	J65	-79.910668	43.321036
;379	-79.911471	43.321212		P136	J47	-79.911233	43.321405
;380	-79.911564	43.3213		P113	J47	-79.911322	43.321471
;381	-79.911667	43.321379		P113	J47	-79.911426	43.321549
;382	-79.911776	43.321448		P113	J47	-79.911526	43.321624
;383	-79.911302	43.321802		P113	J47	-79.91154	43.321634
;384	-79.911204	43.321738		P62	J47	-79.911005	43.321612
;385	-79.910818	43.321407		P136	J47	-79.911004	43.321256
;386	-79.910441	43.321159		P136	J65	-79.910626	43.321009
;387	-79.910718	43.32149		P62	J47	-79.910965	43.321646
;388	-79.910609	43.321587		P62	J47	-79.910852	43.32174
;389	-79.910507	43.321679		P62	J47	-79.910746	43.32183
;390	-79.910338	43.320507		P98	J65	-79.910124	43.320687
;391	-79.90994	43.320919		P71	J76	-79.910149	43.321047
;392	-79.909812	43.320867		P23	J76	-79.909605	43.321039
;393	-79.909487	43.320633		P23	J76	-79.909263	43.320825
;394	-79.909599	43.320713		P23	J76	-79.909383	43.320899
;395	-79.909712	43.320777		P23	J76	-79.909488	43.320964
;396	-79.90924	43.320495		P23	J76	-79.909026	43.320679
;397	-79.909353	43.320573		P23	J76	-79.909145	43.320752
;398	-79.909073	43.320966		P23	J76	-79.909248	43.320816
;399	-79.909307	43.321108		P23	J76	-79.909484	43.320961
;400	-79.909193	43.321041		P23	J76	-79.909369	43.32089
;401	-79.910344	43.321251		P71	J76	-79.910091	43.321096
;402	-79.910237	43.321327		P71	J76	-79.909995	43.321179
;403	-79.910148	43.321421		P12	J76	-79.909909	43.321252
;404	-79.910394	43.32177		P62	J47	-79.910635	43.321922
;405	-79.910036	43.321499		P12	J76	-79.909801	43.321333
;406	-79.909924	43.321602		P12	J76	-79.909676	43.321426
;407	-79.909828	43.321697		P12	J76	-79.909564	43.32151
;408	-79.909524	43.321224		P23	J76	-79.909686	43.32109
;409	-79.909424	43.321313		P12	J76	-79.909631	43.32146
;410	-79.909314	43.321392		P12	J76	-79.909523	43.32154
;411	-79.909193	43.321469		P12	J76	-79.909412	43.321624
;412	-79.909711	43.321785		P12	J76	-79.909447	43.321598
;413	-79.909076	43.321541		P12	J76	-79.909305	43.321703
;414	-79.912576	43.321938		P52	J94	-79.912333	43.321802
;415	-79.912491	43.322042		P52	J94	-79.912232	43.321897
;416	-79.912046	43.322397		P158	J94	-79.912267	43.322281
;417	-79.911942	43.322489		P137	J94	-79.911714	43.322339
;418	-79.911821	43.322578		P137	J94	-79.911598	43.322432
;419	-79.914536	43.32341		P109	J26	-79.914769	43.32357
;420	-79.914431	43.323487		P109	J26	-79.91465	43.323654
;421	-79.914331	43.323567		P109	J26	-79.914543	43.323728
;422	-79.914219	43.323645		P109	J26	-79.91443	43.323806
;423	-79.9141	43.32371		P109	J26	-79.914331	43.323878
;424	-79.913201	43.323637		P53	J70	-79.913026	43.323494
;425	-79.913345	43.323831		P151	J70	-79.913614	43.32369
;426	-79.914544	43.323995		P109	J26	-79.914357	43.323859
;427	-79.914322	43.324544		P123	J2	-79.914549	43.324391
;428	-79.914071	43.324348		P129	J26	-79.913879	43.324182
;429	-79.91394	43.324444		P129	J26	-79.913737	43.324268
;430	-79.913556	43.323988		P151	J26	-79.913791	43.323823
;431	-79.91365	43.32407		P129	J26	-79.91382	43.324217
;432	-79.913452	43.323911		P151	J26	-79.913687	43.323745
;433	-79.913357	43.32418		P129	J103	-79.913525	43.324374
;434	-79.913809	43.324535		P129	J103	-79.913628	43.324326
;435	-79.913194	43.324254		P129	J103	-79.913368	43.324447
;436	-79.912831	43.323251		P158	J70	-79.913088	43.32313
;437	-79.912705	43.32332		P53	J70	-79.912966	43.323533
;438	-79.912582	43.323403		P53	J70	-79.912841	43.323614
;439	-79.913068	43.323718		P53	J70	-79.912897	43.323578
;440	-79.912951	43.323818		P53	J70	-79.912763	43.323665
;441	-79.912826	43.323898		P53	J70	-79.912639	43.323746
;442	-79.912459	43.32349		P53	J70	-79.912713	43.323697
;443	-79.912336	43.323583		P53	J70	-79.912582	43.323783
;444	-79.912217	43.323671		P53	J70	-79.912454	43.323866
;445	-79.912059	43.323786		P53	J70	-79.912287	43.323973
;446	-79.912708	43.323992		P53	J70	-79.912509	43.32383
;447	-79.912587	43.324087		P53	J70	-79.912378	43.323915
;448	-79.913023	43.324314		P129	J103	-79.913211	43.324522
;449	-79.912868	43.324397		P37	J103	-79.913039	43.3246
;450	-79.912698	43.324469		P37	J103	-79.912871	43.324675
;451	-79.912539	43.32454		P37	J103	-79.912712	43.324746
;452	-79.912451	43.32416		P53	J70	-79.912252	43.323996
;453	-79.912297	43.324238		P53	J70	-79.912164	43.324039
;454	-79.91212	43.324296		P53	J70	-79.911989	43.3241
;455	-79.911651	43.322029		P113	J94	-79.911865	43.321878
;456	-79.911552	43.322112		P137	J94	-79.911796	43.322272
;457	-79.911413	43.321881		P113	J47	-79.911648	43.321716
;458	-79.911446	43.322196		P137	J94	-79.911691	43.322357
;459	-79.911324	43.322278		P137	J94	-79.91158	43.322446
;460	-79.911209	43.322373		P137	J94	-79.911464	43.32254
;461	-79.911068	43.32192		P62	J47	-79.910823	43.321765
;462	-79.910958	43.322011		P62	J47	-79.910714	43.321857
;463	-79.910851	43.322108		P62	J47	-79.910602	43.321951
;464	-79.911088	43.322463		P137	J94	-79.911348	43.322634
;465	-79.910742	43.322196		P62	J47	-79.910495	43.32204
;466	-79.910625	43.322291		P62	J47	-79.91038	43.322136
;467	-79.910506	43.322372		P62	J109	-79.910289	43.322213
;468	-79.911713	43.322665		P137	J94	-79.91149	43.322519
;469	-79.911586	43.322757		P137	J94	-79.91137	43.322615
;470	-79.911472	43.322844		P137	J94	-79.91126	43.322704
;471	-79.911356	43.322934		P137	J94	-79.911152	43.32279
;472	-79.911239	43.323025		P137	J94	-79.911033	43.322879
;473	-79.911124	43.323114		P137	J109	-79.910915	43.322966
;474	-79.910974	43.32255		P137	J94	-79.911237	43.322723
;475	-79.910853	43.32264		P137	J94	-79.911109	43.322821
;476	-79.910741	43.322734		P137	J94	-79.91099	43.32291
;477	-79.910621	43.322814		P137	J109	-79.910877	43.322995
;478	-79.910999	43.323198		P137	J109	-79.910797	43.323055
;479	-79.9105	43.322898		P137	J109	-79.910761	43.323082
;480	-79.910287	43.321859		P62	J47	-79.910529	43.322012
;481	-79.910142	43.32194		P62	J47	-79.910411	43.32211
;482	-79.910059	43.322043		P62	J109	-79.910306	43.322199
;483	-79.909933	43.322124		P62	J109	-79.910142	43.322303
;484	-79.910379	43.32246		P62	J109	-79.910174	43.322284
;485	-79.909807	43.322207		P62	J109	-79.910013	43.322383
;486	-79.90958	43.321858		P12	J76	-79.909333	43.321683
;487	-79.909455	43.321941		P12	J122	-79.909215	43.321771
;488	-79.90933	43.322039		P12	J122	-79.909097	43.321859
;489	-79.909189	43.322098		P12	J122	-79.908982	43.321938
;490	-79.909675	43.322288		P62	J109	-79.909881	43.322465
;491	-79.909552	43.322376		P62	J109	-79.90975	43.322546
;492	-79.909417	43.322455		P62	J109	-79.909618	43.322627
;493	-79.909073	43.322209		P12	J122	-79.908844	43.322032
;494	-79.909296	43.322521		P120	J109	-79.909097	43.322664
;495	-79.910251	43.322542		P62	J109	-79.910044	43.322364
;496	-79.910128	43.322625		P62	J109	-79.909916	43.322443
;497	-79.910004	43.322706		P62	J109	-79.909789	43.322522
;498	-79.909761	43.322821		P62	J109	-79.90957	43.322657
;499	-79.910385	43.322996		P137	J109	-79.910637	43.323175
;500	-79.910111	43.323083		P137	J109	-79.909856	43.323258
;501	-79.910224	43.323169		P137	J109	-79.91044	43.323322
;502	-79.909992	43.322994		P137	J109	-79.909739	43.323168
;503	-79.909869	43.322904		P137	J109	-79.909619	43.323076
;504	-79.909132	43.32302		P137	J109	-79.909369	43.322872
;505	-79.909255	43.323117		P137	J109	-79.909487	43.322972
;506	-79.909367	43.323196		P137	J109	-79.909583	43.323048
;507	-79.910885	43.323289		P137	J109	-79.910679	43.323143
;508	-79.910772	43.323378		P137	J109	-79.910563	43.32323
;509	-79.910648	43.323467		P137	J109	-79.910442	43.323321
;510	-79.91055	43.323565		P137	J109	-79.910354	43.323384
;511	-79.911442	43.324013		P53	J114	-79.91159	43.324239
;512	-79.911293	43.324065		P53	J114	-79.911441	43.324291
;513	-79.911152	43.324116		P53	J114	-79.911299	43.32434
;514	-79.911463	43.324516		P53	J114	-79.911339	43.324327
;515	-79.911016	43.324182		P53	J114	-79.911234	43.324363
;516	-79.910903	43.32426		P53	J114	-79.91118	43.324414
;517	-79.910801	43.324353		P53	J114	-79.911081	43.324509
;518	-79.910713	43.324448		P53	J114	-79.910986	43.324599
;519	-79.910632	43.324547		P53	J114	-79.91089	43.32469
;520	-79.909832	43.323549		P137	J109	-79.910044	43.323403
;521	-79.910389	43.323695		P137	J109	-79.910209	43.323467
;522	-79.910167	43.323715		P137	J109	-79.910209	43.323467
;523	-79.909984	43.323676		P137	J109	-79.910095	43.323442
;524	-79.909607	43.32337		P137	J109	-79.909815	43.323227
;525	-79.909489	43.323284		P137	J109	-79.909701	43.323138
;526	-79.909726	43.32346		P137	J109	-79.909933	43.323318
;527	-79.909519	43.323854		P64	J74	-79.909108	43.324037
;528	-79.909339	43.323773		P64	J74	-79.909039	43.323956
;529	-79.909486	43.32412		P64	J74	-79.909166	43.324106
;530	-79.909275	43.324416		P64	J74	-79.909062	43.324265
;531	-79.908907	43.320383		P23	J76	-79.908942	43.320668
;532	-79.908767	43.320411		P23	J76	-79.908905	43.320678
;533	-79.908619	43.320497		P23	J76	-79.90885	43.320693
;534	-79.908527	43.320617		P23	J76	-79.908762	43.320767
;535	-79.908441	43.320701		P23	J76	-79.908668	43.320845
;536	-79.908946	43.320911		P23	J76	-79.908743	43.320782
;537	-79.908828	43.321112		P23	J76	-79.908554	43.32094
;538	-79.908368	43.320807		P23	J76	-79.908565	43.320931
;539	-79.908245	43.320865		P23	J76	-79.908473	43.321008
;540	-79.908175	43.320968		P23	J76	-79.908373	43.321093
;541	-79.90804	43.321024		P23	J122	-79.908278	43.321173
;542	-79.907928	43.321113		P23	J122	-79.908169	43.321265
;543	-79.908709	43.321173		P23	J76	-79.908462	43.321018
;544	-79.908643	43.321274		P23	J76	-79.908365	43.3211
;545	-79.908549	43.321362		P23	J122	-79.908265	43.321184
;546	-79.908452	43.321444		P23	J122	-79.908168	43.321266
;547	-79.908965	43.321619		P12	J122	-79.909198	43.321784
;548	-79.908864	43.321698		P12	J122	-79.909084	43.321868
;549	-79.908757	43.321769		P12	J122	-79.908978	43.32194
;550	-79.907847	43.321195		P23	J122	-79.908095	43.321329
;551	-79.907768	43.32129		P23	J122	-79.908004	43.321418
;552	-79.908325	43.321508		P23	J122	-79.908059	43.321364
;553	-79.908236	43.321604		P23	J122	-79.907964	43.321457
;554	-79.908158	43.321695		P23	J122	-79.907963	43.32184
;555	-79.907657	43.321367		P23	J122	-79.907914	43.321506
;556	-79.907529	43.321459		P23	J122	-79.907808	43.32161
;557	-79.907425	43.321557		P23	J122	-79.907777	43.32164
;558	-79.907413	43.321751		P23	J122	-79.907777	43.32164
;559	-79.908616	43.32187		P12	J122	-79.908834	43.322039
;560	-79.90851	43.321946		P23	J122	-79.908314	43.322091
;561	-79.90896	43.322279		P120	J122	-79.908765	43.322419
;562	-79.908385	43.322477		P120	J122	-79.908618	43.32231
;563	-79.907896	43.32212		P23	J122	-79.908121	43.321953
;564	-79.907786	43.322038		P23	J122	-79.908009	43.321873
;565	-79.908043	43.322217		P23	J122	-79.908263	43.322054
;566	-79.908142	43.3223		P23	J122	-79.90837	43.322131
;567	-79.908287	43.322395		P23	J122	-79.908509	43.322231
;568	-79.908899	43.322857		P120	J109	-79.909132	43.32269
;569	-79.908782	43.322772		P120	J109	-79.909016	43.322604
;570	-79.908628	43.322663		P120	J122	-79.908865	43.322493
;571	-79.908519	43.322578		P120	J122	-79.908753	43.32241
;572	-79.909016	43.322941		P120	J109	-79.909247	43.322775
;573	-79.908143	43.322866		P64	J110	-79.907886	43.32305
;574	-79.907863	43.322697		P64	J110	-79.907632	43.322862
;575	-79.908241	43.322955		P64	J110	-79.907992	43.32313
;576	-79.907664	43.321953		P23	J122	-79.907889	43.321787
;577	-79.907488	43.321856		P23	J122	-79.90784	43.321746
;578	-79.90702	43.321902		P56	J112	-79.90661	43.321646
;579	-79.90704	43.322166		P64	J110	-79.906861	43.322413
;580	-79.907545	43.322245		P64	J110	-79.907201	43.322543
;581	-79.907308	43.322327		P64	J110	-79.907162	43.322528
;582	-79.906806	43.321989		P35	J110	-79.906516	43.322218
;583	-79.907603	43.322517		P64	J110	-79.907381	43.322676
;584	-79.907148	43.322855		P64	J110	-79.907389	43.322682
;585	-79.907399	43.323024		P64	J110	-79.907629	43.32286
;586	-79.906816	43.322674		P51	J110	-79.906584	43.322526
;587	-79.906844	43.323083		P51	J78	-79.906466	43.3234
;588	-79.906536	43.322968		P51	J110	-79.906262	43.322798
;589	-79.906456	43.323134		P51	J78	-79.906284	43.323302
;590	-79.908958	43.323503		P64	J74	-79.908695	43.323671
;591	-79.908695	43.323259		P64	J74	-79.90842	43.323452
;592	-79.90844	43.323843		P64	J74	-79.908702	43.323676
;593	-79.907941	43.323451		P64	J74	-79.908188	43.323277
;594	-79.907759	43.323446		P64	J110	-79.908097	43.323208
;595	-79.908182	43.323648		P64	J74	-79.90844	43.323467
;596	-79.908762	43.324124		P64	J74	-79.90897	43.324317
;597	-79.908551	43.32405		P64	J74	-79.908891	43.323833
;598	-79.908496	43.324285		P64	J74	-79.908698	43.324473
;599	-79.908369	43.323991		P64	J74	-79.908772	43.323734
;600	-79.907769	43.324213		P31	J74	-79.907554	43.32437
;601	-79.908148	43.324455		P31	J74	-79.908148	43.324687
;602	-79.90765	43.323269		P64	J110	-79.907923	43.323077
;603	-79.907386	43.323323		P64	J110	-79.907828	43.323007
;604	-79.907666	43.323827		P31	J78	-79.907244	43.324152
;605	-79.907113	43.323571		P31	J78	-79.906788	43.323687
;606	-79.90731	43.323816		P31	J78	-79.907016	43.323981
;607	-79.906792	43.323253		P51	J78	-79.906516	43.323439
;608	-79.9075	43.324037		P31	J78	-79.9073	43.324191
;609	-79.907137	43.324404		P31	J78	-79.90736	43.324232
;610	-79.906647	43.324048		P122	J78	-79.906396	43.323873
;611	-79.906418	43.324143		P122	J44	-79.906221	43.324006
;612	-79.906872	43.324234		P31	J78	-79.907103	43.324056
;613	-79.90642	43.324564		P139	J44	-79.906202	43.324719
;614	-79.906225	43.32248		P51	J110	-79.906462	43.322628
;615	-79.906044	43.322677		P51	J110	-79.906252	43.322806
;616	-79.905871	43.32272		P51	J110	-79.9062	43.322851
;617	-79.905628	43.323004		P51	J78	-79.906081	43.323019
;618	-79.905741	43.323284		P51	J78	-79.906074	43.323161
;619	-79.905956	43.323455		P51	J78	-79.906193	43.323253
;620	-79.906262	43.323624		P122	J78	-79.906503	43.323792
;621	-79.906041	43.323809		P122	J78	-79.90627	43.323969
;622	-79.905814	43.323635		P122	J78	-79.906281	43.323961
;623	-79.904984	43.323841		P115	J72	-79.904434	43.3235
;624	-79.90613	43.324349		P122	J44	-79.905943	43.324213
;625	-79.906283	43.324453		P139	J44	-79.906059	43.324613
;626	-79.905067	43.32439		P145	J14	-79.905201	43.324594
;627	-79.90479	43.324127		P145	J14	-79.905116	43.324624
;628	-79.904579	43.324192		P115	J72	-79.904026	43.323849
;629	-79.90487	43.324488		P145	J14	-79.904993	43.324666
;630	-79.904139	43.32429		P115	J72	-79.903774	43.324064
;631	-79.903845	43.324464		P115	J72	-79.903532	43.32427
;632	-79.914427	43.324625		P123	J2	-79.914653	43.324473
;633	-79.914527	43.324737		P3	J2	-79.914761	43.324556
;634	-79.913943	43.324845		P7	J103	-79.913679	43.324995
;635	-79.914437	43.32526		P7	J103	-79.914077	43.325406
;636	-79.914301	43.325157		P7	J103	-79.913998	43.325312
;637	-79.914054	43.324946		P7	J103	-79.913789	43.325097
;638	-79.914166	43.325058		P7	J103	-79.913889	43.325199
;639	-79.913672	43.324625		P7	J103	-79.913432	43.324768
;640	-79.913561	43.325269		P7	J103	-79.913826	43.325134
;641	-79.913342	43.325043		P7	J103	-79.913584	43.324906
;642	-79.913421	43.325161		P7	J103	-79.913692	43.325007
;643	-79.914523	43.325413		P7	J103	-79.914118	43.325459
;644	-79.914519	43.325585		P7	J75	-79.914103	43.325494
;645	-79.91438	43.325714		P7	J75	-79.914066	43.325585
;646	-79.914206	43.325812		P7	J75	-79.913994	43.325629
;647	-79.914063	43.325908		P7	J75	-79.913845	43.325721
;648	-79.913676	43.325372		P7	J103	-79.913931	43.325242
;649	-79.913774	43.325496		P7	J75	-79.913956	43.325653
;650	-79.913457	43.325662		P7	J75	-79.913701	43.325825
;651	-79.913298	43.325749		P7	J75	-79.913598	43.325907
;652	-79.913191	43.325901		P7	J75	-79.913598	43.325907
;653	-79.913151	43.324843		P7	J103	-79.913369	43.324713
;654	-79.912997	43.324899		P37	J103	-79.912825	43.324695
;655	-79.912907	43.32499		P37	J87	-79.912583	43.325006
;656	-79.91235	43.324619		P37	J87	-79.912632	43.324783
;657	-79.912261	43.324739		P37	J87	-79.912568	43.324842
;658	-79.912273	43.324903		P37	J87	-79.912572	43.324888
;659	-79.912224	43.325038		P37	J87	-79.912585	43.32502
;660	-79.912221	43.325202		P37	J87	-79.912594	43.325119
;661	-79.913079	43.325325		P37	J87	-79.912654	43.325245
;662	-79.912939	43.325447		P37	J87	-79.912654	43.325245
;663	-79.91275	43.325549		P37	J87	-79.912654	43.325245
;664	-79.912491	43.325522		P37	J87	-79.912654	43.325245
;665	-79.912281	43.3254		P37	J87	-79.912654	43.325245
;666	-79.912227	43.325767		P66	J21	-79.912065	43.326003
;667	-79.912333	43.325847		P66	J21	-79.912144	43.326032
;668	-79.912442	43.325926		P66	J21	-79.912211	43.326083
;669	-79.91211	43.325686		P66	J21	-79.911927	43.325952
;670	-79.911906	43.325654		P66	J21	-79.91189	43.325939
;671	-79.914437	43.326183		P157	J75	-79.914636	43.326393
;672	-79.914302	43.326273		P7	J75	-79.914094	43.326425
;673	-79.913959	43.325988		P7	J75	-79.913721	43.326148
;674	-79.913894	43.3266		P142	J75	-79.914103	43.32676
;675	-79.913186	43.326063		P7	J75	-79.913613	43.326038
;676	-79.913498	43.3263		P7	J75	-79.913723	43.326149
;677	-79.913348	43.326195		P7	J75	-79.913615	43.326064
;678	-79.913639	43.326404		P7	J75	-79.913852	43.326249
;679	-79.913773	43.326503		P7	J75	-79.913987	43.326347
;680	-79.913238	43.326532		P66	J63	-79.913019	43.326678
;681	-79.913341	43.326612		P66	J63	-79.913121	43.326759
;682	-79.914539	43.326762		P142	J75	-79.91433	43.326603
;683	-79.914381	43.326883		P142	J75	-79.914164	43.326718
;684	-79.914239	43.326975		P142	J75	-79.914027	43.326813
;685	-79.914326	43.327325		P49	J89	-79.914093	43.327495
;686	-79.914088	43.327159		P49	J63	-79.91386	43.327325
;687	-79.913999	43.32707		P142	J63	-79.913836	43.326945
;688	-79.914207	43.327242		P49	J89	-79.913976	43.32741
;689	-79.913551	43.326766		P66	J63	-79.913323	43.326918
;690	-79.913662	43.326838		P142	J63	-79.913819	43.326957
;691	-79.913451	43.326687		P66	J63	-79.913223	43.326839
;692	-79.913207	43.327169		P65	J63	-79.913361	43.327281
;693	-79.912895	43.326269		P66	J21	-79.912676	43.326436
;694	-79.912679	43.32611		P66	J21	-79.912447	43.326268
;695	-79.912546	43.326008		P66	J21	-79.912315	43.326165
;696	-79.912789	43.326191		P66	J21	-79.912554	43.326351
;697	-79.9131	43.326427		P66	J63	-79.912892	43.326586
;698	-79.912993	43.326347		P66	J63	-79.912781	43.326509
;699	-79.911955	43.326221		P66	J21	-79.912186	43.326064
;700	-79.912166	43.326381		P66	J21	-79.912394	43.326226
;701	-79.912283	43.32645		P66	J21	-79.912496	43.326305
;702	-79.912377	43.326535		P66	J21	-79.912587	43.326374
;703	-79.912478	43.32662		P66	J21	-79.912699	43.326452
;704	-79.912046	43.326307		P66	J21	-79.912287	43.326143
;705	-79.912908	43.326929		P66	J63	-79.91314	43.326774
;706	-79.912704	43.326772		P66	J63	-79.912921	43.326606
;707	-79.912604	43.326692		P66	J63	-79.912814	43.326532
;708	-79.912801	43.32685		P66	J63	-79.913037	43.326692
;709	-79.913017	43.327001		P66	J63	-79.913239	43.326852
;710	-79.913124	43.32708		P66	J63	-79.913343	43.326934
;711	-79.912953	43.327272		P65	J63	-79.913162	43.327425
;712	-79.911346	43.324611		P53	J114	-79.911111	43.32448
;713	-79.911238	43.324709		P53	J114	-79.911006	43.32458
;714	-79.911292	43.325058		P53	J114	-79.910794	43.324782
;715	-79.910996	43.324924		P53	J114	-79.910774	43.324801
;716	-79.910524	43.324625		P53	J114	-79.910799	43.324778
;717	-79.910441	43.32472		P53	J114	-79.910705	43.324867
;718	-79.911349	43.325346		P53	J114	-79.910624	43.324944
;719	-79.911261	43.325636		P66	J21	-79.91189	43.325939
;720	-79.91078	43.325381		P144	J114	-79.910391	43.325169
;721	-79.910494	43.325577		P101	J15	-79.910226	43.325763
;722	-79.910832	43.325829		P101	J15	-79.91056	43.326018
;723	-79.910704	43.325755		P101	J15	-79.910448	43.325933
;724	-79.910582	43.325675		P101	J15	-79.910335	43.325847
;725	-79.910362	43.324811		P53	J114	-79.910616	43.324952
;726	-79.910271	43.324903		P144	J114	-79.910523	43.32504
;727	-79.910189	43.324997		P144	J114	-79.910431	43.325129
;728	-79.91009	43.32508		P144	J114	-79.910341	43.325217
;729	-79.909996	43.325169		P144	J15	-79.910248	43.325307
;730	-79.909889	43.325254		P144	J15	-79.910154	43.325398
;731	-79.909322	43.325007		P18	J20	-79.909065	43.325152
;732	-79.910383	43.325498		P144	J15	-79.910171	43.325382
;733	-79.909816	43.325363		P144	J15	-79.910056	43.325494
;734	-79.91016	43.325943		P101	J15	-79.910318	43.325834
;735	-79.910019	43.325876		P101	J15	-79.910204	43.325747
;736	-79.909913	43.325803		P26	J15	-79.909788	43.325664
;737	-79.909678	43.325422		P26	J15	-79.909863	43.325629
;738	-79.90954	43.325486		P26	J15	-79.909726	43.325694
;739	-79.909343	43.325586		P26	J81	-79.909447	43.325802
;740	-79.909548	43.32593		P26	J81	-79.909482	43.325793
;741	-79.909191	43.325631		P26	J81	-79.909292	43.325841
;742	-79.910989	43.326058		P101	J15	-79.910666	43.326099
;743	-79.911032	43.326168		P101	J18	-79.91068	43.326195
;744	-79.911044	43.326278		P101	J18	-79.910697	43.326305
;745	-79.91106	43.32639		P101	J18	-79.910713	43.326417
;746	-79.911066	43.3265		P101	J18	-79.910729	43.326526
;747	-79.911079	43.326609		P101	J18	-79.910745	43.326635
;748	-79.910451	43.32645		P101	J18	-79.910715	43.32643
;749	-79.911121	43.326834		P119	J18	-79.910776	43.326846
;750	-79.911133	43.326947		P83	J18	-79.910783	43.326958
;751	-79.911137	43.327055		P83	J18	-79.910789	43.327066
;752	-79.911161	43.327168		P83	J18	-79.910796	43.32718
;753	-79.911177	43.32728		P83	J18	-79.910803	43.327292
;754	-79.911103	43.326722		P101	J18	-79.910762	43.326749
;755	-79.91054	43.326651		P101	J18	-79.910745	43.326635
;756	-79.910521	43.327048		P119	J18	-79.910488	43.326875
;757	-79.910561	43.327155		P83	J18	-79.910794	43.327147
;758	-79.910556	43.327273		P83	J18	-79.910802	43.327265
;759	-79.910368	43.32611		P101	J15	-79.910531	43.325997
;760	-79.910251	43.32603		P101	J15	-79.910421	43.325912
;761	-79.91041	43.326229		P101	J18	-79.910682	43.326208
;762	-79.909754	43.326229		P119	J81	-79.909447	43.326331
;763	-79.910429	43.326344		P101	J18	-79.910699	43.326323
;764	-79.909832	43.326323		P119	J81	-79.909557	43.32646
;765	-79.909901	43.326424		P119	J81	-79.909644	43.326552
;766	-79.910012	43.32651		P119	J18	-79.909793	43.326673
;767	-79.909591	43.32604		P119	J81	-79.909321	43.32613
;768	-79.909694	43.326131		P119	J81	-79.909386	43.326233
;769	-79.909071	43.326142		P119	J81	-79.909284	43.326071
;770	-79.909144	43.326334		P119	J81	-79.909396	43.32625
;771	-79.909213	43.326435		P119	J81	-79.909461	43.326353
;772	-79.909282	43.326535		P119	J81	-79.909517	43.326418
;773	-79.909356	43.326632		P119	J81	-79.909603	43.326509
;774	-79.91039	43.326654		P119	J18	-79.910433	43.326881
;775	-79.910208	43.326696		P119	J18	-79.910021	43.326835
;776	-79.910244	43.327156		P119	J18	-79.910196	43.326905
;777	-79.910085	43.327158		P119	J18	-79.910128	43.326912
;778	-79.909923	43.327088		P119	J18	-79.910128	43.326912
;779	-79.909804	43.327006		P119	J18	-79.910027	43.32684
;780	-79.909463	43.326727		P119	J81	-79.909689	43.3266
;781	-79.909564	43.326816		P119	J18	-79.909774	43.32666
;782	-79.909668	43.326889		P119	J18	-79.909877	43.326733
;783	-79.909087	43.326888		P135	J102	-79.908866	43.327056
;784	-79.909188	43.326971		P135	J102	-79.908976	43.327132
;785	-79.909403	43.327117		P135	J31	-79.909181	43.327275
;786	-79.909619	43.327277		P135	J31	-79.909397	43.327435
;787	-79.909507	43.327198		P135	J31	-79.909288	43.327354
;788	-79.909296	43.327044		P135	J31	-79.909083	43.327206
;789	-79.914464	43.32743		P49	J89	-79.914234	43.327597
;790	-79.913902	43.327581		P49	J89	-79.914057	43.327468
;791	-79.914315	43.327884		P114	J89	-79.914472	43.327764
;792	-79.9142	43.327962		P58	J89	-79.914004	43.327811
;793	-79.91364	43.327385		P49	J63	-79.913791	43.327275
;794	-79.913526	43.327456		P65	J63	-79.913324	43.327308
;795	-79.913802	43.327666		P58	J89	-79.913996	43.327816
;796	-79.913421	43.32754		P65	J63	-79.913213	43.327388
;797	-79.913315	43.327625		P65	J63	-79.913102	43.327469
;798	-79.913676	43.327747		P58	J89	-79.913886	43.327897
;799	-79.913568	43.327827		P58	J89	-79.913778	43.327977
;800	-79.913462	43.327903		P58	J89	-79.913674	43.328054
;801	-79.913338	43.327992		P58	J89	-79.913552	43.328145
;802	-79.914463	43.328162		P58	J64	-79.914686	43.328326
;803	-79.914349	43.328241		P58	J64	-79.914574	43.328406
;804	-79.914238	43.328326		P58	J64	-79.914459	43.328489
;805	-79.914091	43.328053		P58	J89	-79.913879	43.327902
;806	-79.913963	43.328143		P58	J89	-79.913755	43.327994
;807	-79.914121	43.328414		P58	J64	-79.91434	43.328575
;808	-79.914019	43.328495		P58	J64	-79.914233	43.328652
;809	-79.913902	43.328575		P58	J64	-79.914118	43.328734
;810	-79.913842	43.328218		P58	J89	-79.913644	43.328076
;811	-79.913723	43.328321		P58	J89	-79.913514	43.328172
;812	-79.913229	43.328072		P58	J89	-79.913443	43.328225
;813	-79.913613	43.3284		P58	J89	-79.913406	43.328252
;814	-79.913775	43.328654		P58	J64	-79.914002	43.328819
;815	-79.913497	43.328492		P58	J89	-79.913286	43.328341
;816	-79.91338	43.32858		P58	J89	-79.913142	43.328675
;817	-79.912823	43.327358		P65	J63	-79.913038	43.327515
;818	-79.912721	43.32743		P65	J63	-79.912937	43.327588
;819	-79.912599	43.327518		P65	J63	-79.912815	43.327676
;820	-79.912497	43.327596		P65	J63	-79.91271	43.327752
;821	-79.91316	43.32773		P65	J63	-79.912952	43.327578
;822	-79.913051	43.327809		P65	J63	-79.912842	43.327656
;823	-79.912939	43.327898		P65	J63	-79.912725	43.327741
;824	-79.912825	43.327977		P65	J63	-79.912613	43.327822
;825	-79.912385	43.327679		P65	J63	-79.912597	43.327834
;826	-79.912267	43.327766		P65	J63	-79.912478	43.32792
;827	-79.912149	43.327856		P65	J50	-79.912357	43.328008
;828	-79.913114	43.328161		P58	J89	-79.913326	43.328312
;829	-79.913001	43.328237		P58	J89	-79.913218	43.328392
;830	-79.912896	43.328323		P58	J89	-79.913107	43.328474
;831	-79.912713	43.328067		P65	J63	-79.912495	43.327908
;832	-79.9126	43.328151		P65	J50	-79.912381	43.327991
;833	-79.912752	43.328454		P58	J89	-79.913053	43.328514
;834	-79.912728	43.328594		P58	J89	-79.913055	43.32852
;835	-79.91249	43.328232		P65	J50	-79.91227	43.328071
;836	-79.912372	43.328322		P65	J50	-79.912152	43.328156
;837	-79.914542	43.328734		P58	J64	-79.914333	43.32858
;838	-79.914374	43.328852		P58	J64	-79.914167	43.3287
;839	-79.914227	43.328953		P58	J64	-79.914022	43.328804
;840	-79.914391	43.329389		P140	J95	-79.914663	43.329584
;841	-79.91409	43.329061		P58	J64	-79.91388	43.328908
;842	-79.91395	43.329164		P58	J64	-79.913739	43.32901
;843	-79.913672	43.328738		P58	J64	-79.913893	43.328898
;844	-79.913556	43.328828		P58	J64	-79.913319	43.328914
;845	-79.913832	43.32925		P58	J64	-79.913644	43.32906
;846	-79.913656	43.329374		P58	J64	-79.913581	43.329094
;847	-79.913464	43.329381		P58	J64	-79.913553	43.329089
;848	-79.913302	43.329321		P58	J64	-79.913425	43.329069
;849	-79.914149	43.329595		P140	J95	-79.914402	43.329776
;850	-79.913869	43.329797		P124	J95	-79.914122	43.329981
;851	-79.913616	43.329998		P124	J95	-79.913861	43.330172
;852	-79.912932	43.328835		P58	J89	-79.913186	43.328734
;853	-79.913013	43.328947		P58	J64	-79.913269	43.328844
;854	-79.912817	43.328735		P58	J89	-79.913101	43.328621
;855	-79.913102	43.329063		P58	J64	-79.913357	43.32897
;856	-79.91317	43.32917		P58	J64	-79.913425	43.329069
;857	-79.911827	43.329087		P80	J35	-79.911582	43.32922
;858	-79.911932	43.32917		P80	J35	-79.911675	43.32931
;859	-79.912024	43.329266		P80	J35	-79.911771	43.329404
;860	-79.912131	43.329352		P80	J35	-79.911867	43.329496
;861	-79.912275	43.329508		P80	J35	-79.911982	43.329625
;862	-79.912463	43.329733		P80	J35	-79.912138	43.329831
;863	-79.912475	43.330033		P80	J120	-79.912131	43.329984
;864	-79.911817	43.329829		P80	J35	-79.912063	43.329731
;865	-79.911176	43.327391		P83	J18	-79.91081	43.327403
;866	-79.911183	43.327507		P83	J18	-79.910816	43.327499
;867	-79.910551	43.327399		P83	J18	-79.910809	43.327391
;868	-79.910583	43.327967		P83	J31	-79.910416	43.327844
;869	-79.911181	43.328449		P29	J50	-79.91091	43.328595
;870	-79.911273	43.328545		P65	J50	-79.91142	43.32866
;871	-79.910787	43.328112		P29	J31	-79.910552	43.328273
;872	-79.91099	43.32828		P29	J50	-79.910731	43.32842
;873	-79.910895	43.328197		P29	J31	-79.910661	43.328357
;874	-79.910677	43.32804		P29	J31	-79.910451	43.328195
;875	-79.911072	43.328373		P29	J50	-79.910821	43.328508
;876	-79.910574	43.328613		P29	J50	-79.910802	43.32849
;877	-79.910401	43.327546		P83	J31	-79.910613	43.327703
;878	-79.910154	43.32766		P135	J31	-79.909941	43.327823
;879	-79.909831	43.327428		P135	J31	-79.909604	43.327589
;880	-79.910056	43.32757		P135	J31	-79.909828	43.327745
;881	-79.909942	43.327505		P135	J31	-79.909724	43.327672
;882	-79.910249	43.327731		P83	J31	-79.910409	43.327849
;883	-79.909759	43.328009		P135	J31	-79.909973	43.327845
;884	-79.909717	43.327355		P135	J31	-79.909498	43.327511
;885	-79.909079	43.327516		P135	J31	-79.909297	43.327361
;886	-79.909182	43.327596		P135	J31	-79.909402	43.327439
;887	-79.909427	43.327772		P135	J31	-79.909636	43.327612
;888	-79.909648	43.327929		P135	J31	-79.90986	43.327767
;889	-79.909541	43.327852		P135	J31	-79.909751	43.327691
;890	-79.909297	43.327677		P135	J31	-79.909514	43.327523
;891	-79.910182	43.328314		P29	J31	-79.910406	43.328161
;892	-79.909957	43.328169		P135	J31	-79.910187	43.327993
;893	-79.90987	43.32808		P135	J31	-79.91008	43.327919
;894	-79.910086	43.328221		P29	J31	-79.910297	43.328076
;895	-79.910283	43.328396		P29	J31	-79.91051	43.328241
;896	-79.9104	43.328473		P29	J31	-79.910618	43.328324
;897	-79.909429	43.328128		P135	J31	-79.909881	43.327781
;898	-79.909536	43.328219		P135	J31	-79.91	43.327863
;899	-79.909336	43.32806		P135	J31	-79.909786	43.327715
;900	-79.911537	43.328814		P65	J50	-79.911377	43.328689
;901	-79.91172	43.328992		P93	J35	-79.911484	43.329131
;902	-79.911625	43.328902		P93	J35	-79.911386	43.329043
;903	-79.911124	43.329125		P93	J50	-79.911337	43.328999
;904	-79.911217	43.32921		P85	J35	-79.91139	43.329336
;905	-79.91079	43.328814		P29	J50	-79.911011	43.328695
;906	-79.911001	43.329001		P93	J50	-79.911204	43.328881
;907	-79.9109	43.328904		P29	J50	-79.911109	43.328791
;908	-79.910677	43.328714		P29	J50	-79.910905	43.328591
;909	-79.910437	43.328975		P29	J50	-79.910992	43.328676
;910	-79.910964	43.32931		P85	J35	-79.911195	43.329478
;911	-79.910863	43.329387		P85	J35	-79.911092	43.329553
;912	-79.911572	43.329499		P80	J35	-79.911763	43.329395
;913	-79.911461	43.329569		P85	J35	-79.911266	43.329427
;914	-79.91134	43.329663		P85	J35	-79.91114	43.329518
;915	-79.911221	43.329757		P85	J25	-79.911016	43.329608
;916	-79.910757	43.329463		P85	J25	-79.910986	43.32963
;917	-79.910648	43.329551		P85	J25	-79.910865	43.329716
;918	-79.910527	43.329708		P85	J25	-79.910693	43.329835
;919	-79.911071	43.329838		P85	J25	-79.910889	43.329699
;920	-79.910911	43.329996		P85	J25	-79.910697	43.329833
;921	-79.910298	43.329389		P89	J115	-79.909964	43.329634
;922	-79.910024	43.329068		P149	J115	-79.909605	43.329373
;923	-79.909089	43.329334		P149	J115	-79.90932	43.329166
;924	-79.910405	43.329639		P89	J25	-79.91019	43.329797
;925	-79.910089	43.33004		P89	J25	-79.910306	43.32988
;926	-79.909748	43.329808		P126	J115	-79.909597	43.329698
;927	-79.909874	43.329878		P89	J115	-79.910087	43.329722
;928	-79.909979	43.329959		P89	J25	-79.910195	43.3298
;929	-79.909452	43.329579		P126	J115	-79.909606	43.329691
;930	-79.909263	43.32946		P149	J115	-79.909494	43.329292
;931	-79.909358	43.329516		P149	J115	-79.90958	43.329355
;932	-79.909182	43.329397		P149	J115	-79.90941	43.329231
;933	-79.909496	43.330008		P126	J111	-79.909333	43.32989
;934	-79.909095	43.329764		P126	J111	-79.9093	43.329913
;935	-79.908958	43.324592		P64	J74	-79.908779	43.324426
;936	-79.90839	43.324859		P31	J74	-79.908268	43.32467
;937	-79.907995	43.324934		P31	J74	-79.907996	43.324687
;938	-79.909039	43.325662		P26	J81	-79.909161	43.325874
;939	-79.908906	43.325703		P154	J81	-79.909062	43.325913
;940	-79.90877	43.325764		P154	J81	-79.908921	43.325968
;941	-79.90863	43.325796		P154	J81	-79.908769	43.32602
;942	-79.908501	43.325862		P154	J102	-79.908628	43.326066
;943	-79.908355	43.32589		P154	J102	-79.908492	43.326111
;944	-79.908233	43.325958		P154	J102	-79.908356	43.326155
;945	-79.907428	43.324625		P31	J74	-79.907666	43.324452
;946	-79.907663	43.324814		P31	J74	-79.907909	43.324626
;947	-79.90714	43.324671		P31	J74	-79.907554	43.32437
;948	-79.907099	43.324952		P139	J44	-79.906717	43.325026
;949	-79.907213	43.32511		P139	J44	-79.90671	43.325069
;950	-79.906891	43.324853		P139	J44	-79.906708	43.32502
;951	-79.906722	43.324772		P139	J44	-79.90655	43.324929
;952	-79.906579	43.324666		P139	J44	-79.906392	43.324837
;953	-79.906417	43.325144		P139	J44	-79.906579	43.325254
;954	-79.907133	43.325297		P139	J44	-79.906696	43.325164
;955	-79.906976	43.32542		P139	J44	-79.906651	43.325199
;956	-79.906793	43.325495		P139	J44	-79.906514	43.325305
;957	-79.90666	43.325601		P139	J44	-79.906379	43.32541
;958	-79.906507	43.325698		P139	J44	-79.906241	43.325517
;959	-79.906341	43.325911		P139	J14	-79.906086	43.325638
;960	-79.90894	43.326195		P154	J81	-79.90882	43.326003
;961	-79.908802	43.326237		P154	J81	-79.908684	43.326047
;962	-79.908666	43.326288		P154	J102	-79.908545	43.326093
;963	-79.908721	43.326481		P135	J102	-79.908447	43.326588
;964	-79.90879	43.326576		P135	J102	-79.908517	43.326682
;965	-79.908526	43.326328		P135	J102	-79.908316	43.32641
;966	-79.908088	43.32598		P154	J102	-79.908224	43.326199
;967	-79.907955	43.326033		P63	J102	-79.908089	43.326244
;968	-79.907814	43.326071		P63	J102	-79.907953	43.32629
;969	-79.908071	43.32654		P135	J102	-79.908336	43.326437
;970	-79.908148	43.326639		P135	J102	-79.90841	43.326537
;971	-79.907998	43.326444		P63	J102	-79.907909	43.326304
;972	-79.907809	43.326578		P63	J102	-79.907683	43.32638
;973	-79.908968	43.326793		P135	J102	-79.90868	43.326905
;974	-79.908861	43.326676		P135	J102	-79.90859	43.326782
;975	-79.908761	43.327289		P135	J102	-79.908972	43.327129
;976	-79.908538	43.327136		P135	J102	-79.90875	43.326975
;977	-79.908644	43.327216		P135	J102	-79.90886	43.327051
;978	-79.908217	43.326732		P135	J102	-79.908478	43.32663
;979	-79.9083	43.326836		P135	J102	-79.908556	43.326736
;980	-79.908361	43.326927		P135	J102	-79.908622	43.326826
;981	-79.907707	43.32668		P63	J100	-79.907413	43.32656
;982	-79.907684	43.326129		P63	J102	-79.907816	43.326336
;983	-79.907542	43.326167		P63	J102	-79.907679	43.326382
;984	-79.907397	43.326226		P63	J100	-79.907528	43.326432
;985	-79.907258	43.326303		P63	J100	-79.907505	43.32644
;986	-79.907159	43.326381		P63	J100	-79.907457	43.326503
;987	-79.907058	43.326465		P63	J100	-79.907384	43.326598
;988	-79.906939	43.326563		P63	J100	-79.907298	43.326709
;989	-79.907663	43.32686		P63	J100	-79.907297	43.326711
;990	-79.90756	43.326958		P63	J100	-79.907276	43.326738
;991	-79.907052	43.326966		P63	J100	-79.907276	43.326738
;992	-79.907409	43.327016		P63	J100	-79.907276	43.326738
;993	-79.907212	43.327021		P63	J100	-79.907276	43.326738
;994	-79.907113	43.327321		P149	J97	-79.906927	43.327531
;995	-79.907	43.327285		P149	J97	-79.90691	43.327526
;996	-79.906835	43.326676		P63	J100	-79.907276	43.326738
;997	-79.906891	43.326867		P63	J100	-79.907276	43.326738
;998	-79.906667	43.327069		P149	J97	-79.906525	43.32745
;999	-79.906861	43.327258		P149	J97	-79.906771	43.327498
;1000	-79.906759	43.327238		P149	J97	-79.906669	43.327478
;1001	-79.906557	43.327225		P149	J97	-79.906477	43.32744
;1002	-79.905982	43.324832		P139	J44	-79.906172	43.324697
;1003	-79.905829	43.324735		P139	J44	-79.90603	43.324592
;1004	-79.905688	43.324629		P139	J44	-79.905888	43.324486
;1005	-79.906261	43.325063		P139	J44	-79.906463	43.324879
;1006	-79.906122	43.324937		P139	J44	-79.906293	43.32478
;1007	-79.905642	43.325033		P139	J14	-79.905428	43.325195
;1008	-79.905805	43.325136		P139	J14	-79.905584	43.325304
;1009	-79.905494	43.324918		P139	J14	-79.905272	43.325086
;1010	-79.905321	43.324803		P145	J14	-79.905187	43.324599
;1011	-79.905031	43.325182		P139	J14	-79.905212	43.325045
;1012	-79.906123	43.325371		P139	J44	-79.906286	43.325482
;1013	-79.905959	43.325279		P139	J14	-79.905762	43.325428
;1014	-79.906106	43.325954		P139	J14	-79.906086	43.325638
;1015	-79.905754	43.325734		P139	J14	-79.905959	43.325559
;1016	-79.905881	43.325872		P139	J14	-79.906086	43.325638
;1017	-79.905329	43.325393		P139	J14	-79.905512	43.325254
;1018	-79.905624	43.325594		P139	J14	-79.905804	43.325457
;1019	-79.90545	43.325517		P139	J14	-79.905661	43.325357
;1020	-79.905188	43.325282		P139	J14	-79.905363	43.325149
;1021	-79.90498	43.325721		P33	J84	-79.904764	43.325878
;1022	-79.905131	43.325824		P33	J84	-79.90491	43.325984
;1023	-79.905272	43.325934		P33	J84	-79.905056	43.326091
;1024	-79.904701	43.324605		P145	J14	-79.904926	43.32473
;1025	-79.904553	43.324733		P10	J14	-79.904764	43.324871
;1026	-79.90439	43.324848		P10	J14	-79.904613	43.324994
;1027	-79.904885	43.325076		P139	J14	-79.905063	43.324941
;1028	-79.903658	43.324715		P111	J72	-79.903399	43.324916
;1029	-79.903861	43.324891		P111	J6	-79.903628	43.325072
;1030	-79.904249	43.324982		P10	J6	-79.904458	43.325119
;1031	-79.90409	43.325093		P111	J6	-79.903888	43.325249
;1032	-79.90484	43.325612		P33	J6	-79.904619	43.325772
;1033	-79.904688	43.325508		P33	J6	-79.904472	43.325665
;1034	-79.904538	43.32541		P33	J6	-79.90433	43.325561
;1035	-79.904316	43.325865		P33	J6	-79.904532	43.325709
;1036	-79.903903	43.325538		P111	J6	-79.904094	43.32539
;1037	-79.903626	43.325499		P28	J5	-79.903348	43.325555
;1038	-79.904193	43.325755		P33	J6	-79.904395	43.325609
;1039	-79.904063	43.325651		P33	J6	-79.904259	43.325509
;1040	-79.90367	43.32572		P28	J5	-79.903348	43.325555
;1041	-79.903828	43.325956		P94	J88	-79.903578	43.326133
;1042	-79.903742	43.325904		P94	J88	-79.9035	43.326075
;1043	-79.905712	43.326254		P16	J84	-79.90548	43.326412
;1044	-79.90586	43.326366		P16	J84	-79.905625	43.326525
;1045	-79.905418	43.32604		P33	J84	-79.905202	43.326197
;1046	-79.905565	43.326149		P16	J84	-79.905339	43.326303
;1047	-79.906244	43.326949		P16	J97	-79.905892	43.326964
;1048	-79.906252	43.327042		P16	J97	-79.9059	43.327056
;1049	-79.906225	43.327131		P16	J97	-79.905893	43.32708
;1050	-79.90619	43.327205		P149	J97	-79.906128	43.327372
;1051	-79.904632	43.326064		P33	J84	-79.904826	43.325923
;1052	-79.904805	43.326226		P152	J84	-79.904989	43.326377
;1053	-79.904721	43.32617		P33	J84	-79.904943	43.326009
;1054	-79.904482	43.325961		P33	J84	-79.904681	43.325817
;1055	-79.904263	43.326278		P94	J80	-79.904011	43.326457
;1056	-79.904587	43.326392		P152	J80	-79.904754	43.326529
;1057	-79.904351	43.326324		P94	J80	-79.904085	43.326512
;1058	-79.904462	43.326478		P152	J80	-79.904626	43.326612
;1059	-79.903925	43.326008		P94	J88	-79.903661	43.326195
;1060	-79.903992	43.326085		P94	J80	-79.903746	43.326259
;1061	-79.904168	43.32621		P94	J80	-79.903918	43.326387
;1062	-79.904085	43.326153		P94	J80	-79.903838	43.326328
;1063	-79.903628	43.326453		P94	J80	-79.903822	43.326316
;1064	-79.903755	43.326542		P94	J80	-79.903945	43.326408
;1065	-79.903895	43.326637		P94	J80	-79.904078	43.326507
;1066	-79.904476	43.327006		P106	J80	-79.904268	43.326857
;1067	-79.904345	43.327104		P106	J80	-79.904136	43.326954
;1068	-79.904079	43.326753		P106	J80	-79.904246	43.326873
;1069	-79.903973	43.326842		P106	J80	-79.904132	43.326956
;1070	-79.903808	43.326963		P106	J33	-79.903968	43.327078
;1071	-79.904206	43.3272		P106	J33	-79.904001	43.327053
;1072	-79.904076	43.327298		P106	J33	-79.90387	43.32715
;1073	-79.903682	43.32704		P106	J33	-79.903853	43.327163
;1074	-79.908964	43.327442		P135	J31	-79.90919	43.327281
;1075	-79.908858	43.327371		P135	J31	-79.909079	43.327203
;1076	-79.908574	43.327914		P149	J115	-79.908082	43.32828
;1077	-79.907713	43.327683		P149	J97	-79.907483	43.327859
;1078	-79.908188	43.328694		P149	J115	-79.90842	43.328521
;1079	-79.9081	43.328633		P149	J115	-79.908334	43.328459
;1080	-79.907928	43.328511		P149	J115	-79.908162	43.328337
;1081	-79.907837	43.328445		P149	J115	-79.90807	43.328272
;1082	-79.907761	43.328378		P149	J97	-79.907985	43.328211
;1083	-79.908014	43.32857		P149	J115	-79.908246	43.328397
;1084	-79.907451	43.327494		P149	J97	-79.907216	43.327674
;1085	-79.907344	43.327427		P149	J97	-79.907157	43.327639
;1086	-79.907541	43.327555		P149	J97	-79.907305	43.327736
;1087	-79.907635	43.327615		P149	J97	-79.907395	43.327799
;1088	-79.907243	43.327376		P149	J97	-79.907054	43.32759
;1089	-79.907243	43.328005		P149	J97	-79.907457	43.327841
;1090	-79.907063	43.327884		P149	J97	-79.907279	43.327718
;1091	-79.907154	43.327937		P149	J97	-79.907364	43.327777
;1092	-79.906427	43.32766		P149	J97	-79.906507	43.327446
;1093	-79.906961	43.327826		P149	J97	-79.907135	43.327629
;1094	-79.906873	43.327778		P149	J97	-79.907043	43.327586
;1095	-79.906773	43.327725		P149	J97	-79.906852	43.327514
;1096	-79.906666	43.327693		P149	J97	-79.906741	43.327492
;1097	-79.906544	43.327682		P149	J97	-79.906623	43.327469
;1098	-79.906509	43.328008		P6	J53	-79.906326	43.328179
;1099	-79.907408	43.328135		P149	J97	-79.907633	43.327963
;1100	-79.907584	43.328258		P149	J97	-79.907812	43.328088
;1101	-79.907664	43.32832		P149	J97	-79.907896	43.328148
;1102	-79.907491	43.328194		P149	J97	-79.907717	43.328021
;1103	-79.907323	43.328071		P149	J97	-79.907544	43.327901
;1104	-79.907018	43.328343		P6	J53	-79.906801	43.328501
;1105	-79.907424	43.328612		P6	J53	-79.907196	43.328782
;1106	-79.907136	43.328429		P6	J53	-79.906923	43.328588
;1107	-79.907295	43.328539		P6	J53	-79.90708	43.3287
;1108	-79.906767	43.328168		P6	J53	-79.906556	43.328322
;1109	-79.906891	43.328258		P6	J53	-79.906679	43.328412
;1110	-79.906642	43.328086		P6	J53	-79.906461	43.328256
;1111	-79.906357	43.328513		P6	J53	-79.906588	43.328345
;1112	-79.906486	43.328603		P6	J53	-79.906714	43.328437
;1113	-79.906603	43.328695		P6	J53	-79.906836	43.328526
;1114	-79.908654	43.329025		P149	J115	-79.908886	43.328853
;1115	-79.908561	43.328963		P149	J115	-79.908796	43.328789
;1116	-79.90847	43.328911		P149	J115	-79.908714	43.32873
;1117	-79.908911	43.329212		P149	J115	-79.909147	43.32904
;1118	-79.908736	43.329086		P149	J115	-79.90897	43.328912
;1119	-79.908826	43.32915		P149	J115	-79.909062	43.328978
;1120	-79.909008	43.329274		P149	J115	-79.909238	43.329106
;1121	-79.908402	43.329338		P6	J111	-79.90819	43.329511
;1122	-79.908281	43.32876		P149	J115	-79.908513	43.328587
;1123	-79.908354	43.328829		P149	J115	-79.908598	43.328648
;1124	-79.907902	43.328966		P6	J111	-79.907673	43.329124
;1125	-79.907771	43.328885		P6	J111	-79.907562	43.329041
;1126	-79.908162	43.329167		P6	J111	-79.907934	43.329324
;1127	-79.908285	43.32925		P6	J111	-79.908049	43.329413
;1128	-79.908022	43.329048		P6	J111	-79.907786	43.329211
;1129	-79.908941	43.329673		P6	J111	-79.908741	43.329854
;1130	-79.908782	43.32958		P6	J111	-79.908582	43.329761
;1131	-79.908653	43.3295		P6	J111	-79.908441	43.329673
;1132	-79.908526	43.329412		P6	J111	-79.90831	43.329589
;1133	-79.908587	43.329992		P6	J111	-79.90874	43.329853
;1134	-79.908047	43.329725		P6	J111	-79.908256	43.329554
;1135	-79.907692	43.329472		P6	J111	-79.907921	43.329314
;1136	-79.907801	43.329557		P6	J111	-79.908031	43.329399
;1137	-79.907933	43.329635		P6	J111	-79.908131	43.329473
;1138	-79.908164	43.32981		P6	J111	-79.90838	43.329634
;1139	-79.908289	43.329902		P6	J111	-79.908512	43.329719
;1140	-79.907711	43.329988		P36	J45	-79.907483	43.330152
;1141	-79.907827	43.330072		P36	J45	-79.907598	43.330237
;1142	-79.907535	43.328711		P6	J53	-79.907321	43.328871
;1143	-79.90766	43.328792		P6	J111	-79.907441	43.328956
;1144	-79.90709	43.329036		P6	J53	-79.907316	43.328867
;1145	-79.907573	43.329381		P6	J111	-79.907802	43.329223
;1146	-79.907453	43.3293		P6	J111	-79.90769	43.329137
;1147	-79.907204	43.329127		P6	J111	-79.907437	43.328953
;1148	-79.907329	43.329209		P6	J111	-79.907558	43.329038
;1149	-79.906848	43.328871		P6	J53	-79.907078	43.328699
;1150	-79.90673	43.328782		P6	J53	-79.906957	43.328613
;1151	-79.906974	43.328949		P6	J53	-79.907197	43.328783
;1152	-79.906343	43.328968		P36	J9	-79.9061	43.329145
;1153	-79.906847	43.329341		P36	J45	-79.906609	43.329514
;1154	-79.906698	43.329225		P36	J9	-79.906455	43.329402
;1155	-79.906572	43.329147		P36	J9	-79.906338	43.329318
;1156	-79.906453	43.32906		P36	J9	-79.906219	43.329231
;1157	-79.907343	43.32967		P36	J45	-79.907082	43.329858
;1158	-79.907096	43.329506		P36	J45	-79.906848	43.329687
;1159	-79.907221	43.329583		P36	J45	-79.906963	43.329771
;1160	-79.90759	43.329887		P36	J45	-79.907354	43.330057
;1161	-79.907449	43.329775		P36	J45	-79.907207	43.32995
;1162	-79.906966	43.329424		P36	J45	-79.906726	43.329599
;1163	-79.906433	43.329686		P36	J45	-79.906639	43.329536
;1164	-79.906672	43.329856		P36	J45	-79.906876	43.329707
;1165	-79.906902	43.330038		P36	J45	-79.907117	43.329883
;1166	-79.906784	43.32995		P36	J45	-79.906998	43.329796
;1167	-79.906546	43.329774		P36	J45	-79.906756	43.329621
;1168	-79.906303	43.327639		P149	J97	-79.906384	43.327422
;1169	-79.906192	43.327618		P149	J97	-79.906273	43.3274
;1170	-79.906064	43.327593		P149	J97	-79.906145	43.327375
;1171	-79.905959	43.327583		P74	J97	-79.905736	43.327535
;1172	-79.906267	43.327932		P6	J53	-79.906166	43.328104
;1173	-79.905926	43.327831		P6	J53	-79.905827	43.327999
;1174	-79.905361	43.327642		P74	J53	-79.905574	43.32776
;1175	-79.905234	43.327756		P32	J53	-79.905439	43.327888
;1176	-79.905104	43.327838		P32	J53	-79.905325	43.327981
;1177	-79.904981	43.327927		P32	J53	-79.905211	43.328075
;1178	-79.906077	43.328347		P6	J53	-79.906283	43.328155
;1179	-79.905918	43.328251		P6	J53	-79.90603	43.328062
;1180	-79.906228	43.328426		P6	J53	-79.906429	43.328238
;1181	-79.905713	43.328508		P36	J9	-79.905468	43.328687
;1182	-79.905822	43.328598		P36	J9	-79.905585	43.328771
;1183	-79.905941	43.328691		P36	J9	-79.905708	43.328861
;1184	-79.905606	43.328129		P6	J53	-79.905705	43.327961
;1185	-79.905444	43.328225		P32	J53	-79.905211	43.328075
;1186	-79.905335	43.328309		P36	J9	-79.905142	43.32845
;1187	-79.905573	43.32843		P36	J9	-79.905344	43.328597
;1188	-79.90499	43.328675		P36	J9	-79.90522	43.328507
;1189	-79.904865	43.328009		P32	J9	-79.905104	43.328163
;1190	-79.903951	43.327388		P106	J33	-79.903746	43.327241
;1191	-79.903818	43.327489		P116	J33	-79.903614	43.327338
;1192	-79.903678	43.327575		P116	J33	-79.903484	43.327431
;1193	-79.904742	43.328097		P32	J9	-79.904989	43.328257
;1194	-79.904611	43.328176		P130	J9	-79.904839	43.328363
;1195	-79.904492	43.328265		P130	J9	-79.904712	43.328445
;1196	-79.904371	43.328346		P130	J9	-79.904589	43.328525
;1197	-79.904882	43.328573		P130	J9	-79.90472	43.32844
;1198	-79.906094	43.3288		P36	J9	-79.90586	43.328971
;1199	-79.906221	43.328881		P36	J9	-79.905979	43.329057
;1200	-79.905677	43.329151		P36	J9	-79.905892	43.328994
;1201	-79.905917	43.329315		P36	J9	-79.906125	43.329163
;1202	-79.905791	43.329234		P36	J9	-79.906006	43.329077
;1203	-79.905522	43.329038		P36	J9	-79.905736	43.328881
;1204	-79.90538	43.328944		P36	J9	-79.905601	43.328783
;1205	-79.905119	43.328766		P36	J9	-79.905347	43.328599
;1206	-79.905256	43.328853		P36	J9	-79.905476	43.328693
;1207	-79.905292	43.329291		P130	J58	-79.905078	43.329436
;1208	-79.905416	43.32937		P130	J58	-79.90519	43.329523
;1209	-79.905173	43.329199		P130	J58	-79.90496	43.329343
;1210	-79.905048	43.329115		P130	J58	-79.904844	43.329253
;1211	-79.906148	43.329489		P36	J9	-79.90636	43.329334
;1212	-79.906035	43.329401		P36	J9	-79.906243	43.329249
;1213	-79.906272	43.329576		P36	J9	-79.906482	43.329422
;1214	-79.905665	43.329548		P130	J58	-79.905428	43.329709
;1215	-79.905906	43.329727		P130	J58	-79.905662	43.329892
;1216	-79.905789	43.329632		P130	J58	-79.905543	43.329799
;1217	-79.906153	43.329906		P159	J58	-79.905928	43.330079
;1218	-79.906035	43.329816		P159	J58	-79.905804	43.329994
;1219	-79.906276	43.329994		P159	J58	-79.906053	43.330166
;1220	-79.905541	43.329454		P130	J58	-79.905306	43.329613
;1221	-79.904968	43.329679		P130	J58	-79.905194	43.329526
;1222	-79.905323	43.329945		P121	J58	-79.905514	43.33008
;1223	-79.905215	43.329856		P130	J58	-79.90543	43.329711
;1224	-79.905094	43.329764		P130	J58	-79.905311	43.329617
;1225	-79.904677	43.328847		P130	J9	-79.904474	43.329019
;1226	-79.904802	43.328941		P130	J9	-79.90461	43.329104
;1227	-79.904928	43.32903		P130	J9	-79.904743	43.329187
;1228	-79.904563	43.328765		P130	J9	-79.904407	43.328656
;1229	-79.904483	43.329329		P130	J9	-79.90469	43.329153
;1230	-79.904356	43.329254		P130	J9	-79.904566	43.329076
;1231	-79.903988	43.328966		P130	J9	-79.904281	43.328898
;1232	-79.904106	43.329065		P130	J9	-79.904293	43.328906
;1233	-79.90423	43.329155		P130	J9	-79.904426	43.328989
;1234	-79.903893	43.329365		P41	J68	-79.903786	43.329578
;1235	-79.904603	43.329413		P130	J58	-79.904842	43.329251
;1236	-79.904727	43.329497		P130	J58	-79.904957	43.329341
;1237	-79.904843	43.329591		P130	J58	-79.905076	43.329434
;1238	-79.904257	43.329658		P41	J68	-79.904054	43.32981
;1239	-79.904642	43.329934		P41	J73	-79.904446	43.330083
;1240	-79.904763	43.330015		P41	J73	-79.904565	43.330166
;1241	-79.904515	43.329842		P41	J73	-79.904316	43.329994
;1242	-79.904382	43.329749		P41	J73	-79.904183	43.329901
;1243	-79.904041	43.329456		P41	J68	-79.903841	43.329614
;1244	-79.904141	43.329567		P41	J68	-79.903891	43.329658
;1245	-79.903602	43.329397		P41	J68	-79.903682	43.329598
;1246	-79.903944	43.330055		P41	J73	-79.904164	43.329887
;1247	-79.903727	43.329896		P41	J68	-79.903541	43.329768
;1248	-79.903826	43.329975		P41	J68	-79.90405	43.329807
;1249	-79.903222	43.325157		P111	J72	-79.90347	43.324964
;1250	-79.903499	43.325394		P28	J5	-79.903348	43.325555
;1251	-79.903243	43.32534		P28	J5	-79.903348	43.325555
;1252	-79.903012	43.325423		P28	J5	-79.903271	43.325611
;1253	-79.902897	43.325547		P28	J88	-79.903128	43.325715
;1254	-79.903542	43.325802		P94	J88	-79.903322	43.325941
;1255	-79.902757	43.325646		P156	J88	-79.902999	43.325813
;1256	-79.902662	43.325789		P156	J88	-79.902856	43.325923
;1257	-79.902509	43.325868		P156	J88	-79.902729	43.32602
;1258	-79.903233	43.326163		P94	J88	-79.90343	43.326023
;1259	-79.903375	43.326245		P94	J88	-79.903556	43.326117
;1260	-79.903103	43.326092		P94	J88	-79.90333	43.325948
;1261	-79.903026	43.326031		P156	J88	-79.902862	43.325918
;1262	-79.903499	43.326348		P94	J88	-79.903687	43.326215
;1263	-79.902998	43.326522		P156	J33	-79.902761	43.326701
;1264	-79.902805	43.326225		P156	J88	-79.902624	43.3261
;1265	-79.902401	43.325965		P156	J88	-79.902611	43.32611
;1266	-79.902266	43.326063		P156	J88	-79.90248	43.326211
;1267	-79.902699	43.326314		P156	J88	-79.902513	43.326186
;1268	-79.902252	43.326616		P156	J88	-79.902492	43.326512
;1269	-79.903397	43.326808		P156	J33	-79.903165	43.326984
;1270	-79.90331	43.327303		P156	J33	-79.903459	43.32719
;1271	-79.9031	43.327219		P156	J33	-79.903293	43.327073
;1272	-79.903007	43.327168		P156	J33	-79.90321	43.327015
;1273	-79.902537	43.32681		P156	J33	-79.90272	43.326672
;1274	-79.9028	43.326966		P156	J33	-79.902963	43.326843
;1275	-79.902451	43.326751		P156	J88	-79.902635	43.326612
;1276	-79.902356	43.326668		P156	J88	-79.902528	43.326538
;1277	-79.902465	43.327285		P147	J17	-79.902372	43.327592
;1278	-79.902275	43.327249		P147	J17	-79.902192	43.327567
;1279	-79.902147	43.326168		P156	J88	-79.902405	43.326269
;1280	-79.902014	43.326254		P156	J88	-79.902405	43.326269
;1281	-79.902021	43.326447		P156	J88	-79.90244	43.326368
;1282	-79.902126	43.326536		P156	J88	-79.902477	43.32647
;1283	-79.901534	43.32663		P118	J72	-79.901096	43.32636
;1284	-79.90189	43.326996		P147	J17	-79.902183	43.327565
;1285	-79.902091	43.327282		P147	J17	-79.902183	43.327565
;1286	-79.90156	43.327263		P147	J17	-79.902125	43.327614
;1287	-79.900985	43.326864		P118	J32	-79.900709	43.326694
;1288	-79.901279	43.327066		P118	J32	-79.900694	43.326706
;1289	-79.900709	43.327294		P118	J32	-79.900302	43.327043
;1290	-79.903191	43.327405		P116	J33	-79.903352	43.327525
;1291	-79.902892	43.3276		P116	J17	-79.903076	43.327722
;1292	-79.903553	43.327679		P116	J33	-79.903349	43.327527
;1293	-79.903345	43.327881		P116	J17	-79.903039	43.327784
;1294	-79.90325	43.328		P116	J17	-79.902964	43.327909
;1295	-79.902638	43.327402		P147	J17	-79.902385	43.327601
;1296	-79.902743	43.327515		P147	J17	-79.902519	43.327691
;1297	-79.902258	43.327826		P147	J17	-79.902037	43.327689
;1298	-79.90237	43.32789		P147	J17	-79.902575	43.327728
;1299	-79.902494	43.32797		P147	J17	-79.902697	43.32781
;1300	-79.90317	43.328183		P87	J17	-79.902864	43.328109
;1301	-79.903093	43.328304		P87	J17	-79.902807	43.328235
;1302	-79.903003	43.328442		P87	J17	-79.90277	43.328316
;1303	-79.902604	43.328054		P87	J17	-79.902861	43.328116
;1304	-79.902389	43.328252		P87	J17	-79.902642	43.328418
;1305	-79.902261	43.32835		P87	J17	-79.902517	43.328519
;1306	-79.902872	43.328543		P87	J17	-79.90266	43.328404
;1307	-79.902762	43.328655		P87	J17	-79.902534	43.328505
;1308	-79.901924	43.327395		P147	J17	-79.902183	43.327565
;1309	-79.901817	43.327527		P147	J17	-79.902054	43.327675
;1310	-79.901694	43.32764		P147	J17	-79.901926	43.327784
;1311	-79.901568	43.327742		P147	J17	-79.901803	43.327888
;1312	-79.901232	43.327533		P147	J17	-79.901803	43.327888
;1313	-79.901451	43.327846		P147	J17	-79.901683	43.327991
;1314	-79.901334	43.327945		P147	J17	-79.901566	43.32809
;1315	-79.900851	43.32783		P147	J17	-79.90144	43.328197
;1316	-79.902059	43.328049		P147	J17	-79.901802	43.327889
;1317	-79.901926	43.32814		P147	J17	-79.901684	43.327989
;1318	-79.901809	43.328246		P147	J17	-79.901563	43.328092
;1319	-79.901693	43.328353		P147	J17	-79.901441	43.328196
;1320	-79.902145	43.328459		P87	J17	-79.902391	43.328621
;1321	-79.902018	43.328559		P87	J17	-79.902265	43.328722
;1322	-79.9019	43.328664		P87	J17	-79.90214	43.328822
;1323	-79.901564	43.328455		P147	J17	-79.901317	43.328301
;1324	-79.901208	43.328048		P147	J17	-79.901443	43.328194
;1325	-79.901082	43.328154		P147	J17	-79.901317	43.328301
;1326	-79.900974	43.328257		P147	J17	-79.901202	43.328399
;1327	-79.900855	43.328351		P147	J40	-79.901087	43.328496
;1328	-79.901461	43.328562		P147	J17	-79.901201	43.3284
;1329	-79.901335	43.328667		P147	J40	-79.901076	43.328506
;1330	-79.902619	43.328761		P87	J17	-79.902397	43.328615
;1331	-79.902495	43.328874		P87	J17	-79.902264	43.328722
;1332	-79.902402	43.328975		P87	J17	-79.902153	43.328811
;1333	-79.903451	43.329496		P41	J68	-79.903682	43.329598
;1334	-79.903353	43.329602		P41	J68	-79.90361	43.329699
;1335	-79.903235	43.329691		P41	J68	-79.90345	43.329838
;1336	-79.903111	43.329774		P41	J68	-79.903334	43.329927
;1337	-79.903007	43.329873		P41	J68	-79.903217	43.330017
;1338	-79.902863	43.329939		P41	J68	-79.90311	43.3301
;1339	-79.902724	43.330017		P41	J68	-79.903105	43.330109
;1340	-79.901774	43.328761		P87	J17	-79.902017	43.328921
;1341	-79.901651	43.328867		P87	J17	-79.901899	43.32902
;1342	-79.901525	43.328976		P87	J17	-79.901772	43.329129
;1343	-79.902072	43.329243		P87	J17	-79.90182	43.329087
;1344	-79.901958	43.329324		P87	J17	-79.901717	43.329175
;1345	-79.901188	43.328763		P147	J40	-79.900949	43.328614
;1346	-79.90106	43.328894		P147	J40	-79.900793	43.328753
;1347	-79.900918	43.328992		P147	J40	-79.900697	43.328849
;1348	-79.901377	43.329095		P87	J36	-79.901629	43.329251
;1349	-79.901245	43.329205		P87	J36	-79.901499	43.329362
;1350	-79.901133	43.329318		P87	J36	-79.901376	43.329468
;1351	-79.901829	43.329424		P87	J36	-79.901595	43.32928
;1352	-79.90171	43.329527		P87	J36	-79.901476	43.329382
;1353	-79.90159	43.329624		P87	J36	-79.90136	43.329482
;1354	-79.901466	43.329729		P87	J36	-79.901236	43.329587
;1355	-79.901009	43.329409		P87	J36	-79.901262	43.329565
;1356	-79.900838	43.329463		P87	J36	-79.900947	43.329717
;1357	-79.901334	43.329833		P87	J36	-79.901134	43.329675
;1358	-79.901149	43.32991		P87	J36	-79.901056	43.329693
;1359	-79.90098	43.329954		P87	J36	-79.900884	43.329731
;1360	-79.900573	43.327625		P118	J32	-79.900021	43.327285
;1361	-79.900252	43.32743		P118	J32	-79.900019	43.327286
;1362	-79.90015	43.327984		P118	J32	-79.899601	43.327646
;1363	-79.899825	43.327783		P118	J32	-79.899601	43.327645
;1364	-79.900462	43.328121		P147	J40	-79.901077	43.328505
;1365	-79.900723	43.328463		P147	J40	-79.900955	43.328608
;1366	-79.900621	43.328566		P147	J40	-79.900842	43.328704
;1367	-79.900479	43.328656		P147	J40	-79.90058	43.328877
;1368	-79.900282	43.328678		P147	J40	-79.900308	43.328931
;1369	-79.899667	43.328146		P118	J32	-79.899289	43.327913
;1370	-79.899853	43.328446		P147	J40	-79.899906	43.328953
;1371	-79.90076	43.329064		P147	J40	-79.900665	43.328857
;1372	-79.900582	43.329099		P147	J40	-79.90049	43.328899
;1373	-79.900409	43.329122		P147	J40	-79.900373	43.328928
;1374	-79.900245	43.329142		P147	J40	-79.900224	43.328936
;1375	-79.900077	43.328713		P147	J40	-79.900101	43.328943
;1376	-79.899711	43.328728		P147	J40	-79.899872	43.328962
;1377	-79.89955	43.328809		P4	J40	-79.899338	43.32891
;1378	-79.900072	43.329157		P147	J40	-79.90005	43.328945
;1379	-79.899902	43.329193		P147	J40	-79.899769	43.329
;1380	-79.899756	43.329285		P147	J40	-79.89954	43.329128
;1381	-79.899627	43.329385		P99	J40	-79.89941	43.329215
;1382	-79.900647	43.329489		P87	J36	-79.900672	43.329757
;1383	-79.900479	43.32951		P87	J36	-79.900502	43.329765
;1384	-79.900302	43.329521		P87	J36	-79.900327	43.329774
;1385	-79.900796	43.329972		P87	J36	-79.900776	43.329752
;1386	-79.900615	43.329992		P87	J36	-79.900594	43.329761
;1387	-79.90044	43.330012		P87	J36	-79.90024	43.329822
;1388	-79.900307	43.330074		P87	J36	-79.900097	43.329907
;1389	-79.900109	43.329561		P87	J36	-79.900327	43.329774
;1390	-79.899974	43.329655		P87	J36	-79.900183	43.329854
;1391	-79.899858	43.329718		P99	J36	-79.899666	43.329855
;1392	-79.899533	43.329482		P99	J40	-79.899342	43.329641
;1393	-79.899509	43.330031		P99	J36	-79.89971	43.329887
;1394	-79.899006	43.329009		P4	J40	-79.899301	43.328869
;1395	-79.898727	43.328784		P112	J32	-79.898465	43.328624
;1396	-79.898332	43.329303		P112	J39	-79.897951	43.329071
;1397	-79.898925	43.329632		P99	J40	-79.899158	43.329524
;1398	-79.899279	43.32988		P99	J36	-79.899469	43.329722
;1399	-79.899107	43.329751		P99	J40	-79.899284	43.329604
;1400	-79.898396	43.329566		P99	J40	-79.899158	43.329524
;1401	-79.898152	43.329986		P141	J69	-79.897628	43.330157
;1402	-79.913383	43.33016		P124	J95	-79.913635	43.330339
;1403	-79.913034	43.330411		P124	J98	-79.913293	43.330594
;1404	-79.912765	43.330587		P124	J98	-79.913041	43.330783
;1405	-79.91222	43.330233		P80	J120	-79.912001	43.330094
;1406	-79.912007	43.330402		P80	J120	-79.911792	43.330247
;1407	-79.912252	43.330508		P80	J120	-79.911841	43.330212
;1408	-79.912246	43.330697		P105	J98	-79.911855	43.330994
;1409	-79.911945	43.330732		P105	J120	-79.911722	43.330901
;1410	-79.912517	43.330774		P124	J98	-79.912802	43.330966
;1411	-79.91229	43.330934		P105	J98	-79.912036	43.33112
;1412	-79.911558	43.330083		P80	J120	-79.911789	43.330249
;1413	-79.911152	43.330153		P91	J120	-79.910914	43.330326
;1414	-79.911766	43.330571		P80	J120	-79.911557	43.33042
;1415	-79.910541	43.330338		P91	J25	-79.910735	43.330197
;1416	-79.910825	43.330567		P91	J120	-79.911035	43.330414
;1417	-79.910509	43.330757		P21	J120	-79.910806	43.330965
;1418	-79.911511	43.331052		P105	J120	-79.911716	43.330897
;1419	-79.911304	43.330975		P21	J120	-79.911051	43.330787
;1420	-79.911688	43.331172		P105	J98	-79.91189	43.331018
;1421	-79.911796	43.331338		P42	J98	-79.91207	43.33153
;1422	-79.911052	43.331122		P21	J120	-79.910817	43.330957
;1423	-79.910849	43.331322		P21	J120	-79.910582	43.331135
;1424	-79.910302	43.330189		P91	J25	-79.91052	43.330036
;1425	-79.910195	43.330112		P89	J25	-79.910409	43.329955
;1426	-79.910399	43.330269		P91	J25	-79.910622	43.330113
;1427	-79.910016	43.330396		P21	J111	-79.909643	43.33044
;1428	-79.909861	43.33027		P21	J111	-79.909643	43.330439
;1429	-79.91005	43.33054		P21	J111	-79.90965	43.330553
;1430	-79.909943	43.330689		P21	J111	-79.909652	43.330595
;1431	-79.909604	43.330108		P21	J111	-79.909395	43.33027
;1432	-79.909736	43.330182		P21	J111	-79.909516	43.330353
;1433	-79.909099	43.330294		P21	J111	-79.909254	43.330174
;1434	-79.90937	43.330479		P21	J111	-79.909525	43.330359
;1435	-79.909252	43.330556		P21	J111	-79.909479	43.330721
;1436	-79.909135	43.330643		P21	J111	-79.909361	43.330807
;1437	-79.910369	43.330883		P21	J120	-79.910652	43.331081
;1438	-79.910249	43.330972		P21	J120	-79.910533	43.331171
;1439	-79.909818	43.330782		P21	J111	-79.909607	43.330628
;1440	-79.910039	43.33114		P21	J120	-79.910317	43.331335
;1441	-79.909804	43.331242		P21	J111	-79.909513	43.331472
;1442	-79.90981	43.331361		P21	J111	-79.90958	43.331522
;1443	-79.909698	43.330868		P21	J111	-79.909488	43.330715
;1444	-79.909579	43.330956		P21	J111	-79.909368	43.330802
;1445	-79.909461	43.331043		P21	J111	-79.909249	43.330889
;1446	-79.909611	43.331235		P21	J111	-79.909434	43.331435
;1447	-79.90934	43.331136		P21	J111	-79.909181	43.331316
;1448	-79.911558	43.331489		P42	J98	-79.911851	43.331695
;1449	-79.911337	43.331461		P42	J98	-79.911764	43.331761
;1450	-79.911284	43.331665		P42	J98	-79.911592	43.33189
;1451	-79.910938	43.331675		P42	J98	-79.911411	43.332021
;1452	-79.91056	43.331513		P21	J120	-79.910311	43.331339
;1453	-79.910432	43.331589		P21	J120	-79.910198	43.331425
;1454	-79.911037	43.33184		P42	J98	-79.911347	43.332067
;1455	-79.910773	43.332083		P42	J98	-79.911047	43.332284
;1456	-79.910532	43.332246		P42	J91	-79.910814	43.332452
;1457	-79.910268	43.331697		P21	J120	-79.910044	43.33154
;1458	-79.910048	43.331935		P21	J120	-79.909912	43.33164
;1459	-79.909131	43.331545		P21	J111	-79.909289	43.331366
;1460	-79.909318	43.33168		P21	J111	-79.909563	43.331509
;1461	-79.909147	43.331783		P21	J111	-79.909449	43.331442
;1462	-79.909599	43.331954		P21	J120	-79.909745	43.331647
;1463	-79.909421	43.331817		P21	J120	-79.909706	43.331618
;1464	-79.909133	43.332057		P34	J85	-79.908923	43.332212
;1465	-79.910255	43.332439		P42	J91	-79.910542	43.332649
;1466	-79.909749	43.332469		P34	J85	-79.90936	43.332578
;1467	-79.909834	43.332632		P34	J85	-79.909404	43.332661
;1468	-79.90962	43.332387		P34	J85	-79.909315	43.332494
;1469	-79.909469	43.33232		P34	J85	-79.909274	43.332464
;1470	-79.90926	43.332141		P34	J85	-79.909045	43.332299
;1471	-79.909385	43.332225		P34	J85	-79.909166	43.332386
;1472	-79.909709	43.332761		P34	J85	-79.909404	43.332661
;1473	-79.909603	43.332853		P34	J85	-79.909375	43.332682
;1474	-79.909479	43.332922		P34	J85	-79.909263	43.33276
;1475	-79.90937	43.333013		P34	J85	-79.909145	43.332844
;1476	-79.908977	43.330351		P125	J111	-79.90879	43.330209
;1477	-79.908465	43.330099		P125	J111	-79.908696	43.330275
;1478	-79.908858	43.330442		P125	J111	-79.908666	43.330296
;1479	-79.908748	43.330535		P125	J45	-79.908545	43.33038
;1480	-79.909021	43.330737		P21	J111	-79.909239	43.330896
;1481	-79.908621	43.330624		P125	J45	-79.908417	43.330469
;1482	-79.908512	43.330707		P125	J45	-79.908303	43.330548
;1483	-79.908347	43.330182		P125	J45	-79.908578	43.330357
;1484	-79.90823	43.33027		P125	J45	-79.908456	43.330442
;1485	-79.908125	43.330348		P36	J45	-79.907935	43.330485
;1486	-79.907944	43.330164		P36	J45	-79.907719	43.330326
;1487	-79.907761	43.330621		P36	J45	-79.907943	43.33049
;1488	-79.908895	43.330819		P21	J111	-79.90912	43.330982
;1489	-79.908788	43.330904		P21	J111	-79.909008	43.331064
;1490	-79.908605	43.331053		P21	J111	-79.908966	43.331094
;1491	-79.908856	43.331422		P21	J111	-79.909018	43.331239
;1492	-79.908613	43.331195		P21	J111	-79.908966	43.331195
;1493	-79.908712	43.331342		P21	J111	-79.908966	43.331215
;1494	-79.908344	43.330825		P88	J45	-79.908127	43.330673
;1495	-79.908227	43.330907		P88	J45	-79.908014	43.330758
;1496	-79.90812	43.330993		P88	J45	-79.907904	43.330841
;1497	-79.908201	43.331375		P34	J3	-79.907982	43.331536
;1498	-79.90809	43.331297		P34	J3	-79.907872	43.331457
;1499	-79.907867	43.33113		P88	J3	-79.907688	43.331004
;1500	-79.907971	43.331208		P34	J3	-79.907751	43.33137
;1501	-79.907413	43.330408		P36	J45	-79.907624	43.330256
;1502	-79.907184	43.330234		P36	J45	-79.907391	43.330085
;1503	-79.907037	43.330116		P36	J45	-79.907237	43.329972
;1504	-79.90729	43.330321		P36	J45	-79.907503	43.330167
;1505	-79.907522	43.330497		P36	J45	-79.907739	43.33034
;1506	-79.907652	43.330711		P88	J45	-79.907872	43.330865
;1507	-79.906785	43.33034		P159	J58	-79.906455	43.330442
;1508	-79.906654	43.330247		P159	J58	-79.906426	43.330422
;1509	-79.906528	43.330166		P159	J58	-79.906304	43.330338
;1510	-79.906404	43.330079		P159	J58	-79.906179	43.330252
;1511	-79.906887	43.330456		P159	J58	-79.906455	43.330442
;1512	-79.906871	43.330622		P159	J58	-79.906439	43.330598
;1513	-79.90678	43.330731		P159	J58	-79.906439	43.330601
;1514	-79.907542	43.330786		P88	J3	-79.907767	43.330944
;1515	-79.907415	43.330877		P88	J3	-79.907644	43.331037
;1516	-79.907297	43.330964		P88	J3	-79.907527	43.331125
;1517	-79.907168	43.331032		P11	J3	-79.907394	43.331217
;1518	-79.907429	43.331444		P11	J3	-79.907259	43.331305
;1519	-79.907048	43.331109		P11	J3	-79.907275	43.331294
;1520	-79.906645	43.330808		P159	J58	-79.906399	43.330629
;1521	-79.906515	43.330868		P159	J58	-79.906293	43.330707
;1522	-79.906408	43.330947		P159	J58	-79.906185	43.330785
;1523	-79.906938	43.331194		P11	J3	-79.907077	43.331396
;1524	-79.906792	43.331247		P11	J3	-79.906931	43.33145
;1525	-79.906642	43.331309		P11	J3	-79.906777	43.331506
;1526	-79.90645	43.33137		P11	J99	-79.90659	43.331574
;1527	-79.908992	43.331496		P21	J111	-79.90916	43.331306
;1528	-79.908439	43.331554		P34	J3	-79.908226	43.331711
;1529	-79.908546	43.331633		P34	J3	-79.908334	43.331789
;1530	-79.908671	43.33171		P34	J3	-79.90845	43.331872
;1531	-79.909031	43.331966		P34	J85	-79.908809	43.33213
;1532	-79.908907	43.331882		P34	J85	-79.908688	43.332043
;1533	-79.908798	43.331802		P34	J85	-79.908578	43.331964
;1534	-79.908334	43.331465		P34	J3	-79.908111	43.331629
;1535	-79.907887	43.331774		P34	J3	-79.908098	43.331619
;1536	-79.907771	43.331696		P34	J3	-79.907985	43.331538
;1537	-79.908109	43.331943		P34	J3	-79.908326	43.331783
;1538	-79.908224	43.332028		P34	J3	-79.908443	43.331867
;1539	-79.908339	43.332113		P34	J3	-79.908559	43.331951
;1540	-79.908004	43.331857		P34	J3	-79.908214	43.331702
;1541	-79.907788	43.33209		P69	J49	-79.907589	43.332246
;1542	-79.90881	43.332444		P34	J85	-79.909025	43.332285
;1543	-79.908584	43.332272		P34	J85	-79.908793	43.332118
;1544	-79.908465	43.33219		P34	J85	-79.908676	43.332034
;1545	-79.908696	43.332367		P34	J85	-79.908915	43.332206
;1546	-79.909056	43.332557		P34	J85	-79.909228	43.33243
;1547	-79.908973	43.332641		P34	J85	-79.909196	43.332808
;1548	-79.908867	43.332714		P34	J85	-79.909091	43.332882
;1549	-79.908753	43.332788		P46	J85	-79.908592	43.332965
;1550	-79.908554	43.332641		P46	J49	-79.908313	43.332793
;1551	-79.908436	43.33256		P46	J49	-79.908207	43.332704
;1552	-79.908224	43.332402		P69	J49	-79.908018	43.332552
;1553	-79.908115	43.332325		P69	J49	-79.907911	43.332474
;1554	-79.907893	43.332173		P69	J49	-79.907702	43.332323
;1555	-79.908008	43.332246		P69	J49	-79.907803	43.332395
;1556	-79.90833	43.332486		P46	J49	-79.908111	43.332624
;1557	-79.907527	43.331525		P34	J3	-79.907744	43.331365
;1558	-79.907643	43.33161		P34	J3	-79.907861	43.331449
;1559	-79.90724	43.331583		P11	J3	-79.907105	43.331386
;1560	-79.907098	43.331651		P11	J3	-79.906954	43.331441
;1561	-79.907531	43.331936		P69	J49	-79.907467	43.33217
;1562	-79.907681	43.332012		P69	J49	-79.907478	43.332172
;1563	-79.907327	43.331906		P69	J49	-79.907262	43.33214
;1564	-79.907065	43.331986		P69	J49	-79.907212	43.332159
;1565	-79.906894	43.331726		P11	J3	-79.906749	43.331516
;1566	-79.906755	43.331755		P11	J99	-79.906622	43.331562
;1567	-79.906314	43.331468		P11	J99	-79.906514	43.331608
;1568	-79.906663	43.331848		P11	J99	-79.90642	43.331679
;1569	-79.906878	43.332082		P69	J49	-79.907018	43.332247
;1570	-79.906542	43.33192		P11	J99	-79.906313	43.331761
;1571	-79.906454	43.33201		P11	J99	-79.906209	43.331839
;1572	-79.906343	43.33209		P11	J99	-79.906101	43.331921
;1573	-79.907365	43.332366		P69	J49	-79.90755	43.33222
;1574	-79.907273	43.332445		P69	J49	-79.907081	43.332219
;1575	-79.907658	43.332571		P69	J49	-79.907851	43.33243
;1576	-79.907556	43.332653		P68	J49	-79.9078	43.332812
;1577	-79.907454	43.332728		P68	J49	-79.907703	43.33289
;1578	-79.907364	43.332819		P68	J49	-79.907601	43.332974
;1579	-79.907151	43.332513		P69	J49	-79.90687	43.332355
;1580	-79.907054	43.332596		P69	J49	-79.906778	43.332441
;1581	-79.906739	43.332183		P69	J49	-79.906935	43.332293
;1582	-79.906624	43.332272		P69	J49	-79.906833	43.33239
;1583	-79.906523	43.332351		P69	J49	-79.906743	43.332475
;1584	-79.906436	43.33244		P69	J49	-79.906653	43.332559
;1585	-79.906963	43.332685		P69	J49	-79.906631	43.332618
;1586	-79.90689	43.332788		P69	J7	-79.906589	43.332727
;1587	-79.906367	43.332541		P69	J49	-79.906639	43.332596
;1588	-79.906313	43.332661		P69	J7	-79.906593	43.332718
;1589	-79.905779	43.330207		P159	J58	-79.905937	43.330086
;1590	-79.905669	43.330291		P121	J58	-79.905444	43.330132
;1591	-79.90616	43.330472		P159	J58	-79.90632	43.330349
;1592	-79.906054	43.330564		P159	J58	-79.906272	43.330722
;1593	-79.905948	43.330645		P159	J58	-79.906163	43.330801
;1594	-79.905829	43.330727		P159	J58	-79.906047	43.330886
;1595	-79.905537	43.33037		P121	J73	-79.905326	43.330221
;1596	-79.904999	43.330197		P121	J73	-79.905184	43.330328
;1597	-79.90542	43.330463		P121	J73	-79.905205	43.330312
;1598	-79.905298	43.330554		P121	J73	-79.905084	43.330403
;1599	-79.905185	43.330636		P121	J73	-79.905002	43.330464
;1600	-79.905055	43.330725		P61	J73	-79.904882	43.330517
;1601	-79.906285	43.331016		P159	J58	-79.906076	43.330864
;1602	-79.906194	43.331107		P159	J58	-79.905968	43.330943
;1603	-79.905728	43.330806		P159	J58	-79.905942	43.330962
;1604	-79.906085	43.331185		P159	J99	-79.90586	43.331022
;1605	-79.905973	43.331266		P159	J99	-79.905749	43.331103
;1606	-79.905872	43.331348		P159	J99	-79.905642	43.331181
;1607	-79.905764	43.331428		P159	J99	-79.905533	43.33126
;1608	-79.905613	43.330892		P159	J99	-79.905826	43.331047
;1609	-79.905509	43.330971		P159	J99	-79.905719	43.331124
;1610	-79.905388	43.331052		P159	J99	-79.905603	43.331209
;1611	-79.904974	43.330837		P61	J73	-79.904754	43.330573
;1612	-79.905284	43.331133		P159	J99	-79.905496	43.331287
;1613	-79.905168	43.331198		P159	J99	-79.905393	43.331362
;1614	-79.905056	43.331278		P159	J99	-79.905282	43.331442
;1615	-79.904876	43.330109		P41	J73	-79.904691	43.330252
;1616	-79.904269	43.330283		P41	J73	-79.90449	43.330114
;1617	-79.904382	43.330362		P41	J73	-79.904604	43.330193
;1618	-79.904503	43.330444		P61	J73	-79.904596	43.330636
;1619	-79.904158	43.330205		P41	J73	-79.904379	43.330037
;1620	-79.904041	43.330139		P41	J73	-79.904272	43.329963
;1621	-79.903571	43.330086		P41	J68	-79.903337	43.329925
;1622	-79.904128	43.330484		P61	J73	-79.904245	43.330726
;1623	-79.903955	43.330518		P61	J62	-79.904076	43.330769
;1624	-79.903812	43.330572		P61	J62	-79.903926	43.330807
;1625	-79.903682	43.330635		P61	J62	-79.903848	43.330827
;1626	-79.903574	43.330712		P61	J62	-79.903799	43.330865
;1627	-79.904755	43.330845		P61	J73	-79.904636	43.330626
;1628	-79.904617	43.330899		P61	J73	-79.904501	43.33066
;1629	-79.904435	43.3309		P61	J73	-79.904339	43.330702
;1630	-79.90431	43.330954		P61	J73	-79.904204	43.330736
;1631	-79.904926	43.331381		P159	J99	-79.905273	43.331449
;1632	-79.904157	43.330989		P61	J62	-79.904053	43.330775
;1633	-79.904052	43.331045		P61	J62	-79.903936	43.330805
;1634	-79.90394	43.331242		P103	J62	-79.903705	43.331415
;1635	-79.904193	43.331425		P103	J54	-79.903959	43.331597
;1636	-79.90407	43.331332		P103	J54	-79.903833	43.331507
;1637	-79.903788	43.331147		P61	J62	-79.903601	43.331019
;1638	-79.906179	43.331546		P11	J99	-79.906396	43.331697
;1639	-79.906064	43.33164		P11	J99	-79.906277	43.331788
;1640	-79.905663	43.331506		P159	J99	-79.905444	43.331676
;1641	-79.905955	43.331739		P11	J99	-79.906157	43.331879
;1642	-79.905161	43.331744		P159	J99	-79.905341	43.331605
;1643	-79.905046	43.331659		P159	J99	-79.905273	43.331559
;1644	-79.905284	43.33182		P159	J99	-79.905458	43.331685
;1645	-79.905386	43.3319		P159	J99	-79.905567	43.33176
;1646	-79.905605	43.332049		P75	J99	-79.905771	43.332168
;1647	-79.905502	43.331976		P159	J99	-79.905681	43.331837
;1648	-79.904999	43.33212		P22	J34	-79.904683	43.332228
;1649	-79.906241	43.332181		P11	J99	-79.90599	43.332006
;1650	-79.906135	43.332245		P75	J99	-79.905898	43.332075
;1651	-79.906046	43.332327		P75	J99	-79.905797	43.332149
;1652	-79.905939	43.332407		P75	J99	-79.90569	43.332228
;1653	-79.906238	43.332763		P69	J7	-79.906551	43.332826
;1654	-79.905827	43.332487		P75	J99	-79.905579	43.332309
;1655	-79.905688	43.332588		P75	J34	-79.905441	43.332411
;1656	-79.905376	43.332153		P75	J99	-79.905587	43.332304
;1657	-79.905253	43.332258		P75	J34	-79.905454	43.332402
;1658	-79.905099	43.332308		P22	J34	-79.9048	43.33241
;1659	-79.905464	43.332808		P25	J34	-79.90514	43.332923
;1660	-79.905382	43.332698		P75	J34	-79.905295	43.332519
;1661	-79.904934	43.331539		P159	J99	-79.905273	43.331539
;1662	-79.904686	43.331792		P22	J54	-79.904442	43.331958
;1663	-79.904433	43.331608		P22	J54	-79.904197	43.331769
;1664	-79.90432	43.331515		P103	J54	-79.904085	43.331688
;1665	-79.904564	43.331703		P22	J54	-79.904324	43.331867
;1666	-79.904818	43.331894		P22	J54	-79.904574	43.332061
;1667	-79.904905	43.332007		P22	J54	-79.904606	43.332109
;1668	-79.903777	43.33176		P103	J54	-79.903979	43.331611
;1669	-79.903663	43.33169		P103	J54	-79.903873	43.331535
;1670	-79.904206	43.332046		P22	J54	-79.904392	43.331919
;1671	-79.904378	43.332288		P22	J34	-79.904659	43.332192
;1672	-79.904456	43.332396		P22	J34	-79.904731	43.332302
;1673	-79.904541	43.332505		P132	J34	-79.904625	43.332685
;1674	-79.904253	43.33256		P132	J34	-79.904356	43.332751
;1675	-79.904068	43.332147		P92	J54	-79.903865	43.331991
;1676	-79.903933	43.332252		P92	J54	-79.90372	43.332092
;1677	-79.903783	43.332351		P92	J54	-79.903575	43.332195
;1678	-79.903644	43.332454		P92	J54	-79.903432	43.332295
;1679	-79.90417	43.332617		P132	J34	-79.904356	43.332751
;1680	-79.904071	43.332671		P132	J34	-79.904283	43.33281
;1681	-79.903994	43.332729		P132	J22	-79.904209	43.33287
;1682	-79.903778	43.33277		P132	J22	-79.904083	43.332971
;1683	-79.908388	43.333074		P46	J85	-79.908519	43.33293
;1684	-79.908929	43.333324		P153	J85	-79.909052	43.333175
;1685	-79.908829	43.33342		P1	J85	-79.908586	43.333239
;1686	-79.908105	43.332907		P46	J49	-79.908301	43.332783
;1687	-79.908282	43.333153		P1	J105	-79.90849	43.333308
;1688	-79.907981	43.332984		P68	J49	-79.907763	43.332842
;1689	-79.907851	43.333088		P68	J49	-79.907634	43.332947
;1690	-79.908177	43.333244		P1	J105	-79.908438	43.333345
;1691	-79.908069	43.333389		P1	J105	-79.908398	43.333453
;1692	-79.907772	43.333215		P68	J49	-79.907493	43.333158
;1693	-79.907716	43.333349		P68	J49	-79.907441	43.333293
;1694	-79.908728	43.33352		P1	J105	-79.908397	43.333455
;1695	-79.90861	43.333644		P1	J105	-79.908376	43.333512
;1696	-79.908434	43.333752		P1	J105	-79.908376	43.333512
;1697	-79.908138	43.333768		P1	J105	-79.908376	43.333512
;1698	-79.90795	43.333607		P1	J105	-79.908376	43.333512
;1699	-79.907819	43.334023		P110	J91	-79.908252	43.334331
;1700	-79.907274	43.33291		P68	J49	-79.907547	43.333017
;1701	-79.907214	43.333021		P68	J49	-79.907522	43.333084
;1702	-79.907166	43.333133		P68	J49	-79.907478	43.333197
;1703	-79.907661	43.333479		P68	J49	-79.907391	43.333424
;1704	-79.907118	43.333254		P68	J49	-79.907432	43.333318
;1705	-79.90706	43.333367		P68	J49	-79.907387	43.333434
;1706	-79.90684	43.332903		P69	J7	-79.906545	43.332843
;1707	-79.906794	43.333025		P69	J7	-79.906498	43.332965
;1708	-79.906747	43.333144		P69	J7	-79.906453	43.333081
;1709	-79.906685	43.333269		P69	J7	-79.906401	43.333209
;1710	-79.906996	43.333485		P68	J7	-79.90734	43.333555
;1711	-79.906622	43.333394		P69	J7	-79.90635	43.333336
;1712	-79.906539	43.333497		P69	J7	-79.906325	43.333397
;1713	-79.907605	43.3336		P68	J7	-79.907343	43.333547
;1714	-79.90756	43.333719		P68	J7	-79.907299	43.333662
;1715	-79.907446	43.333833		P68	J7	-79.907246	43.333706
;1716	-79.907375	43.333965		P68	J7	-79.907126	43.333807
;1717	-79.907248	43.334021		P68	J7	-79.907033	43.333885
;1718	-79.907161	43.334114		P68	J7	-79.906932	43.333969
;1719	-79.907058	43.334196		P68	J7	-79.906824	43.334066
;1720	-79.906936	43.333615		P68	J7	-79.907175	43.333766
;1721	-79.906833	43.333709		P68	J7	-79.907066	43.333857
;1722	-79.906721	43.333798		P68	J7	-79.906957	43.333948
;1723	-79.906444	43.333598		P69	J7	-79.906251	43.333448
;1724	-79.906337	43.33368		P68	J7	-79.906139	43.333823
;1725	-79.906616	43.333891		P68	J7	-79.906405	43.334022
;1726	-79.907784	43.334292		P110	J91	-79.90805	43.334481
;1727	-79.907636	43.334363		P110	J91	-79.907929	43.334571
;1728	-79.907514	43.334467		P110	J23	-79.907798	43.334669
;1729	-79.907212	43.334551		P110	J23	-79.907592	43.334822
;1730	-79.907082	43.334709		P110	J23	-79.907419	43.33495
;1731	-79.906884	43.334297		P68	J7	-79.90674	43.334146
;1732	-79.906687	43.3344		P68	J7	-79.906731	43.334145
;1733	-79.906367	43.334315		P68	J7	-79.906527	43.334127
;1734	-79.906534	43.33441		P68	J7	-79.906582	43.334132
;1735	-79.906995	43.334806		P110	J23	-79.90731	43.335031
;1736	-79.906513	43.334791		P48	J22	-79.905863	43.334646
;1737	-79.906812	43.334954		P110	J23	-79.907111	43.335178
;1738	-79.906523	43.335131		P110	J23	-79.906841	43.335369
;1739	-79.906374	43.335248		P110	J23	-79.906684	43.33548
;1740	-79.906182	43.332879		P69	J7	-79.906506	43.332944
;1741	-79.906152	43.333007		P69	J7	-79.906457	43.333072
;1742	-79.906105	43.333126		P69	J7	-79.906409	43.333191
;1743	-79.905657	43.33311		P25	J7	-79.905341	43.333222
;1744	-79.905968	43.333361		P69	J7	-79.906159	43.33351
;1745	-79.905854	43.333279		P25	J7	-79.905621	43.333482
;1746	-79.905749	43.333206		P25	J7	-79.905509	43.333415
;1747	-79.90551	43.332904		P25	J34	-79.905201	43.333014
;1748	-79.905586	43.333001		P25	J34	-79.905268	43.333114
;1749	-79.904959	43.333141		P25	J34	-79.905223	43.333047
;1750	-79.905015	43.333219		P25	J34	-79.905276	43.333126
;1751	-79.905066	43.333289		P25	J7	-79.905324	43.333197
;1752	-79.905129	43.333366		P25	J7	-79.905378	43.333277
;1753	-79.905181	43.333446		P25	J7	-79.905431	43.333357
;1754	-79.905728	43.333844		P68	J7	-79.905949	43.333684
;1755	-79.905634	43.333781		P25	J7	-79.905831	43.33361
;1756	-79.906178	43.334165		P68	J7	-79.906407	43.334024
;1757	-79.906084	43.334101		P68	J7	-79.906302	43.333943
;1758	-79.905998	43.33404		P68	J7	-79.906218	43.333881
;1759	-79.905817	43.333908		P68	J7	-79.906037	43.333749
;1760	-79.905909	43.333976		P68	J7	-79.906129	43.333817
;1761	-79.905458	43.333658		P25	J7	-79.905644	43.333496
;1762	-79.905366	43.333588		P25	J7	-79.905542	43.333435
;1763	-79.905546	43.333716		P25	J7	-79.905735	43.333552
;1764	-79.905271	43.333522		P25	J7	-79.905443	43.333375
;1765	-79.90515	43.333822		P48	J22	-79.90494	43.333983
;1766	-79.905015	43.333728		P48	J22	-79.904804	43.33389
;1767	-79.905283	43.333919		P48	J22	-79.905077	43.334078
;1768	-79.905415	43.334017		P48	J22	-79.905207	43.334168
;1769	-79.90556	43.334103		P48	J22	-79.905339	43.334264
;1770	-79.904837	43.332875		P25	J34	-79.905055	43.332797
;1771	-79.904704	43.332922		P132	J34	-79.904597	43.332692
;1772	-79.904891	43.333073		P25	J34	-79.905173	43.332973
;1773	-79.904566	43.332972		P132	J34	-79.904453	43.332728
;1774	-79.904437	43.333046		P132	J22	-79.904191	43.332884
;1775	-79.904615	43.33344		P48	J22	-79.904396	43.333608
;1776	-79.904349	43.333246		P48	J22	-79.904122	43.33342
;1777	-79.90448	43.333343		P48	J22	-79.904258	43.333514
;1778	-79.904216	43.333156		P132	J22	-79.904016	43.333025
;1779	-79.903604	43.332898		P132	J22	-79.903918	43.333104
;1780	-79.90378	43.333475		P82	J22	-79.903604	43.333366
;1781	-79.904883	43.333631		P48	J22	-79.904668	43.333796
;1782	-79.904751	43.333536		P48	J22	-79.904533	43.333703
;1783	-79.904711	43.334143		P48	J22	-79.904929	43.333976
;1784	-79.904448	43.333952		P48	J22	-79.904659	43.33379
;1785	-79.904312	43.333857		P48	J22	-79.904522	43.333696
;1786	-79.904579	43.334051		P48	J22	-79.904796	43.333884
;1787	-79.903911	43.333573		P48	J22	-79.904116	43.333416
;1788	-79.904044	43.333667		P48	J22	-79.90425	43.333508
;1789	-79.904181	43.333763		P48	J22	-79.904389	43.333604
;1790	-79.90365	43.333766		P48	J119	-79.903384	43.333971
;1791	-79.903917	43.333958		P48	J119	-79.903657	43.334158
;1792	-79.904183	43.334153		P48	J119	-79.90394	43.334351
;1793	-79.904047	43.334056		P48	J119	-79.903793	43.334252
;1794	-79.903785	43.333862		P48	J119	-79.903521	43.334065
;1795	-79.906252	43.334234		P68	J7	-79.906485	43.33409
;1796	-79.905987	43.334413		P48	J22	-79.905765	43.334574
;1797	-79.905822	43.334304		P48	J22	-79.905608	43.33446
;1798	-79.905689	43.334202		P48	J22	-79.905471	43.33436
;1799	-79.906173	43.334603		P48	J22	-79.905863	43.334646
;1800	-79.904976	43.334339		P48	J22	-79.905209	43.33417
;1801	-79.905114	43.334433		P48	J22	-79.905343	43.334267
;1802	-79.905247	43.334529		P48	J22	-79.905475	43.334363
;1803	-79.90538	43.334623		P48	J22	-79.905606	43.334458
;1804	-79.905515	43.334718		P48	J22	-79.90569	43.334855
;1805	-79.905123	43.334817		P48	J119	-79.904915	43.334986
;1806	-79.904986	43.334725		P48	J119	-79.904776	43.334895
;1807	-79.906213	43.334915		P48	J22	-79.905798	43.334782
;1808	-79.906038	43.33504		P48	J22	-79.90575	43.334815
;1809	-79.905866	43.335169		P48	J119	-79.905569	43.334937
;1810	-79.906248	43.335375		P110	J23	-79.906532	43.335587
;1811	-79.906107	43.335468		P110	J23	-79.906396	43.335684
;1812	-79.905691	43.335298		P48	J119	-79.905387	43.33506
;1813	-79.905956	43.335574		P110	J23	-79.906245	43.33579
;1814	-79.90525	43.334912		P48	J119	-79.905415	43.335041
;1815	-79.905518	43.335427		P48	J119	-79.905212	43.335179
;1816	-79.904845	43.334241		P48	J22	-79.905067	43.334071
;1817	-79.904724	43.334531		P48	J119	-79.904498	43.334715
;1818	-79.904452	43.334341		P48	J119	-79.904217	43.334532
;1819	-79.904314	43.334248		P48	J119	-79.904077	43.334441
;1820	-79.904587	43.334436		P48	J119	-79.904357	43.334623
;1821	-79.904855	43.334628		P48	J119	-79.904637	43.334805
;1822	-79.903813	43.334531		P48	J119	-79.903992	43.334385
;1823	-79.903685	43.334431		P48	J119	-79.903859	43.334297
;1824	-79.903948	43.334628		P48	J119	-79.904133	43.334477
;1825	-79.904083	43.334724		P48	J119	-79.904274	43.334569
;1826	-79.904217	43.334824		P48	J119	-79.904417	43.334662
;1827	-79.904622	43.335111		P48	J119	-79.904838	43.334935
;1828	-79.904757	43.335209		P48	J119	-79.90498	43.335028
;1829	-79.90449	43.335013		P48	J119	-79.904698	43.334844
;1830	-79.904354	43.334914		P48	J119	-79.904554	43.334751
;1831	-79.904897	43.335308		P48	J119	-79.905125	43.335122
;1832	-79.905821	43.335681		P5	J23	-79.906101	43.335892
;1833	-79.905262	43.335779		P5	J23	-79.905744	43.336142
;1834	-79.904837	43.336044		P15	J16	-79.904659	43.336172
;1835	-79.904283	43.33683		P131	J60	-79.90404	43.337022
;1836	-79.903461	43.330173		P41	J68	-79.903225	43.330011
;1837	-79.903445	43.330325		P41	J68	-79.90305	43.330229
;1838	-79.903346	43.33042		P41	J68	-79.903026	43.330283
;1839	-79.903182	43.330495		P41	J68	-79.903026	43.330283
;1840	-79.902984	43.330536		P41	J68	-79.903026	43.330283
;1841	-79.902659	43.330327		P41	J68	-79.903026	43.330283
;1842	-79.902527	43.330161		P41	J68	-79.903026	43.330282
;1843	-79.902784	43.330451		P41	J68	-79.903026	43.330283
;1844	-79.902245	43.330493		P72	J41	-79.901939	43.330707
;1845	-79.902408	43.330705		P72	J41	-79.902163	43.330877
;1846	-79.902316	43.330614		P72	J41	-79.902056	43.330796
;1847	-79.903467	43.330792		P61	J62	-79.903694	43.330947
;1848	-79.90336	43.330863		P61	J62	-79.903595	43.331023
;1849	-79.903262	43.33094		P61	J62	-79.903496	43.3311
;1850	-79.903154	43.33101		P61	J62	-79.903398	43.331176
;1851	-79.903038	43.331085		P90	J62	-79.903277	43.331263
;1852	-79.902947	43.331169		P72	J90	-79.902741	43.331313
;1853	-79.90263	43.330881		P72	J41	-79.902391	43.331049
;1854	-79.90277	43.330948		P72	J90	-79.902504	43.331134
;1855	-79.902518	43.330792		P72	J41	-79.902276	43.330962
;1856	-79.902576	43.331425		P72	J90	-79.902738	43.331311
;1857	-79.90229	43.331288		P72	J90	-79.902507	43.331136
;1858	-79.902137	43.330405		P72	J41	-79.901865	43.330652
;1859	-79.90192	43.330336		P72	J41	-79.901865	43.330652
;1860	-79.901717	43.330368		P72	J41	-79.901865	43.330652
;1861	-79.901502	43.330503		P72	J41	-79.901865	43.330652
;1862	-79.901445	43.330639		P72	J41	-79.901865	43.330652
;1863	-79.902045	43.331103		P72	J41	-79.902262	43.330951
;1864	-79.901926	43.331013		P72	J41	-79.902143	43.330861
;1865	-79.901627	43.330907		P72	J41	-79.901926	43.330698
;1866	-79.901751	43.330972		P72	J41	-79.90203	43.330776
;1867	-79.902168	43.331204		P72	J41	-79.90239	43.331048
;1868	-79.901617	43.331273		P150	J43	-79.901315	43.331501
;1869	-79.901496	43.330807		P72	J41	-79.901865	43.330652
;1870	-79.901195	43.33109		P150	J43	-79.90097	43.33126
;1871	-79.900865	43.330866		P150	J29	-79.900645	43.331033
;1872	-79.901027	43.330981		P150	J43	-79.900808	43.331147
;1873	-79.901379	43.331187		P150	J43	-79.901132	43.331374
;1874	-79.903562	43.331615		P103	J62	-79.90377	43.331462
;1875	-79.903454	43.33154		P103	J62	-79.903664	43.331385
;1876	-79.903355	43.331459		P90	J62	-79.903182	43.33133
;1877	-79.903185	43.33164		P90	J90	-79.902971	43.33148
;1878	-79.903074	43.33173		P45	J90	-79.90285	43.331569
;1879	-79.903513	43.331884		P92	J54	-79.903756	43.332067
;1880	-79.903378	43.331977		P92	J54	-79.903623	43.332161
;1881	-79.903251	43.332074		P92	J54	-79.903491	43.332254
;1882	-79.902962	43.331826		P45	J90	-79.902728	43.331658
;1883	-79.902462	43.33151		P45	J90	-79.902699	43.33168
;1884	-79.902344	43.331596		P45	J90	-79.902582	43.331767
;1885	-79.902225	43.331683		P45	J90	-79.902463	43.331854
;1886	-79.902835	43.331904		P45	J90	-79.902612	43.331744
;1887	-79.902712	43.331989		P45	J90	-79.902493	43.331832
;1888	-79.90259	43.332073		P45	J90	-79.902375	43.331919
;1889	-79.903121	43.332168		P92	J54	-79.903359	43.332347
;1890	-79.902989	43.332265		P92	J54	-79.903224	43.332442
;1891	-79.903502	43.332544		P92	J54	-79.903297	43.33239
;1892	-79.903374	43.332641		P92	J54	-79.903164	43.332484
;1893	-79.903248	43.332736		P92	J54	-79.903034	43.332575
;1894	-79.902857	43.332361		P92	J54	-79.90309	43.332536
;1895	-79.902724	43.332458		P92	J106	-79.902955	43.332631
;1896	-79.902474	43.332172		P45	J90	-79.90225	43.332011
;1897	-79.90237	43.332246		P45	J106	-79.902148	43.332086
;1898	-79.902265	43.332324		P45	J106	-79.902042	43.332164
;1899	-79.902611	43.332558		P92	J106	-79.902828	43.332721
;1900	-79.90248	43.332654		P92	J106	-79.902709	43.332811
;1901	-79.902354	43.332751		P92	J106	-79.902584	43.332908
;1902	-79.902107	43.331765		P45	J90	-79.902348	43.331938
;1903	-79.90171	43.331483		P150	J43	-79.901329	43.331511
;1904	-79.901608	43.331682		P150	J43	-79.901329	43.331511
;1905	-79.901988	43.331852		P45	J90	-79.90223	43.332026
;1906	-79.901867	43.331938		P45	J106	-79.902111	43.332113
;1907	-79.901748	43.332025		P45	J106	-79.901993	43.332201
;1908	-79.90163	43.332113		P45	J106	-79.901874	43.332288
;1909	-79.90131	43.331775		P150	J43	-79.901329	43.331511
;1910	-79.900893	43.331529		P150	J43	-79.901115	43.331361
;1911	-79.90106	43.331699		P150	J43	-79.901318	43.331503
;1912	-79.900917	43.332093		P100	J13	-79.900678	43.33225
;1913	-79.902152	43.332393		P45	J106	-79.901939	43.33224
;1914	-79.902055	43.332475		P45	J106	-79.901835	43.332317
;1915	-79.901519	43.332215		P45	J106	-79.901749	43.33238
;1916	-79.901949	43.332552		P45	J106	-79.90173	43.332394
;1917	-79.90184	43.332624		P45	J106	-79.901626	43.33247
;1918	-79.901739	43.332705		P92	J106	-79.901556	43.332831
;1919	-79.901394	43.332292		P45	J106	-79.901634	43.332465
;1920	-79.90127	43.332375		P44	J106	-79.901087	43.332529
;1921	-79.901042	43.332187		P44	J13	-79.900828	43.332367
;1922	-79.901012	43.332763		P44	J106	-79.901194	43.332597
;1923	-79.900892	43.332686		P44	J106	-79.901082	43.332526
;1924	-79.900175	43.330179		P87	J36	-79.899954	43.330003
;1925	-79.900704	43.330727		P150	J29	-79.900485	43.330922
;1926	-79.900452	43.330639		P150	J29	-79.900432	43.33092
;1927	-79.900079	43.330354		P27	J36	-79.899754	43.33036
;1928	-79.899456	43.330226		P27	J36	-79.89975	43.330239
;1929	-79.899463	43.330362		P27	J36	-79.899754	43.330357
;1930	-79.900091	43.330538		P27	J29	-79.89976	43.330544
;1931	-79.900092	43.330669		P150	J29	-79.900075	43.330906
;1932	-79.899448	43.330503		P27	J29	-79.899758	43.330498
;1933	-79.899449	43.330638		P27	J29	-79.899763	43.330633
;1934	-79.900758	43.331423		P150	J43	-79.900972	43.331261
;1935	-79.900599	43.331284		P150	J43	-79.900793	43.331137
;1936	-79.900432	43.331169		P150	J29	-79.900628	43.331021
;1937	-79.900089	43.331085		P150	J29	-79.900101	43.330907
;1938	-79.899452	43.330921		P100	J29	-79.89977	43.330925
;1939	-79.899453	43.331056		P100	J29	-79.899767	43.33106
;1940	-79.900059	43.331216		P100	J29	-79.899764	43.331212
;1941	-79.90007	43.331366		P100	J29	-79.89976	43.331362
;1942	-79.899461	43.33119		P100	J29	-79.899764	43.331194
;1943	-79.899452	43.331323		P100	J29	-79.899761	43.331327
;1944	-79.899444	43.330775		P27	J29	-79.899767	43.33077
;1945	-79.898547	43.331001		P84	J59	-79.89744	43.331351
;1946	-79.900516	43.331794		P100	J13	-79.900285	43.331974
;1947	-79.900138	43.331497		P100	J29	-79.899782	43.331559
;1948	-79.900237	43.331619		P100	J13	-79.900014	43.331787
;1949	-79.900383	43.331705		P100	J13	-79.900153	43.331884
;1950	-79.900654	43.331891		P100	J13	-79.900425	43.332069
;1951	-79.900777	43.331992		P100	J13	-79.90056	43.332161
;1952	-79.899454	43.331473		P100	J29	-79.899757	43.331477
;1953	-79.89946	43.331622		P100	J29	-79.899784	43.331566
;1954	-79.899587	43.331754		P100	J29	-79.89981	43.331643
;1955	-79.899981	43.332068		P100	J13	-79.900187	43.331907
;1956	-79.899852	43.331982		P100	J13	-79.900064	43.331822
;1957	-79.899699	43.331884		P100	J29	-79.899918	43.331719
;1958	-79.900256	43.332259		P100	J13	-79.900465	43.332096
;1959	-79.900375	43.332347		P50	J13	-79.900596	43.332507
;1960	-79.900776	43.332604		P50	J13	-79.900618	43.33249
;1961	-79.900116	43.332165		P100	J13	-79.900326	43.332002
;1962	-79.899589	43.332565		P50	J13	-79.900057	43.332902
;1963	-79.898598	43.332411		P70	J56	-79.898079	43.332794
;1964	-79.903432	43.333026		P82	J22	-79.903762	43.333231
;1965	-79.90326	43.333154		P82	J22	-79.903603	43.333367
;1966	-79.903117	43.332826		P92	J106	-79.902905	43.332667
;1967	-79.902999	43.332922		P92	J106	-79.902769	43.332765
;1968	-79.903082	43.333282		P82	J119	-79.90344	43.333505
;1969	-79.902914	43.333413		P82	J119	-79.903281	43.333641
;1970	-79.902871	43.333016		P92	J106	-79.902645	43.332861
;1971	-79.902743	43.333108		P92	J106	-79.902521	43.332956
;1972	-79.90222	43.332846		P92	J106	-79.902456	43.333007
;1973	-79.902612	43.3332		P92	J106	-79.902397	43.333053
;1974	-79.902501	43.333306		P92	J106	-79.902306	43.333123
;1975	-79.90238	43.333407		P92	J106	-79.902215	43.333155
;1976	-79.903515	43.333674		P82	J119	-79.903357	43.333576
;1977	-79.90328	43.334141		P48	J119	-79.903446	43.334013
;1978	-79.903146	43.334044		P48	J119	-79.903309	43.333919
;1979	-79.902747	43.333551		P86	J119	-79.903096	43.333797
;1980	-79.902578	43.333685		P86	J119	-79.902922	43.333927
;1981	-79.902419	43.333823		P86	J119	-79.90275	43.334056
;1982	-79.902091	43.332942		P92	J106	-79.901916	43.333099
;1983	-79.902151	43.333483		P92	J106	-79.902085	43.333199
;1984	-79.90196	43.333435		P92	J106	-79.902085	43.333199
;1985	-79.901708	43.333251		P92	J106	-79.901892	43.333086
;1986	-79.901588	43.333171		P92	J106	-79.901804	43.333023
;1987	-79.901807	43.333343		P92	J106	-79.902014	43.333157
;1988	-79.901249	43.332924		P92	J106	-79.901475	43.332769
;1989	-79.90136	43.333008		P92	J106	-79.901585	43.332854
;1990	-79.901477	43.333088		P92	J106	-79.901695	43.332938
;1991	-79.901132	43.332844		P44	J106	-79.901308	43.332652
;1992	-79.900842	43.333723		P55	J10	-79.90012	43.334299
;1993	-79.901047	43.334067		P55	J10	-79.900467	43.334529
;1994	-79.90341	43.33424		P48	J119	-79.903583	43.334107
;1995	-79.903546	43.334334		P48	J119	-79.903719	43.334201
;1996	-79.903328	43.334895		P48	J119	-79.903971	43.334372
;1997	-79.901897	43.334406		P86	J52	-79.902097	43.334547
;1998	-79.901327	43.334248		P86	J52	-79.901929	43.334672
;1999	-79.901964	43.335053		P86	J52	-79.901685	43.334856
;2000	-79.900188	43.333277		P50	J118	-79.899864	43.333044
;2001	-79.900133	43.333745		P13	J10	-79.899744	43.334018
;2002	-79.900267	43.333962		P13	J10	-79.899958	43.334179
;2003	-79.897942	43.330132		P141	J69	-79.897628	43.330157
;2004	-79.897361	43.330648		P141	J69	-79.897628	43.330157
;2005	-79.896487	43.331097		P108	J67	-79.896111	43.331365
;2006	-79.896186	43.330926		P102	J67	-79.895932	43.330763
;2007	-79.896694	43.331428		P108	J93	-79.896439	43.331609
;2008	-79.897379	43.3317		P84	J59	-79.897171	43.331555
;2009	-79.896834	43.33148		P84	J93	-79.897062	43.331639
;2010	-79.903346	43.336068		P30	J121	-79.903054	43.335852

;[CUSTOMERS_DEMANDS]
;Id	BaseDemand	PatternId
;1	0.011398007928594597	
;2	0.019217189650096597	
;3	0.016959196575164728	
;4	0.01682067451307237	
;5	0.020310706641878982	
;6	0.019611393524599004	
;7	0.0153064084394679	
;8	0.013396374473385318	
;9	0.01462906829971839	
;10	0.019912417131279517	
;11	0.01998661647699816	
;12	0.017544183350302268	
;13	0.15229490928989936	
;14	0.18076662821192427	
;15	0.1655167893398259	
;16	0.01630890549988948	
;17	0.013636451744206274	
;18	0.19223276600980693	
;19	0.17355054435778317	
;20	0.0718084946005015	
;21	0.20212058826565238	
;22	0.009636464422263964	
;23	0.022422457839295584	
;24	0.020098490880502206	
;25	0.021372791074485822	
;26	0.022822692598818688	
;27	0.022634027533940723	
;28	0.0160780671195442	
;29	0.01063742553518053	
;30	0.01194539429602094	
;31	0.01480348346358721	
;32	0.01400377229503289	
;33	0.01995309458801296	
;34	0.01955130630044058	
;35	0.019447192785958113	
;36	0.021867201006816266	
;37	0.02029253045801234	
;38	0.0173613857366656	
;39	0.008149121319670688	
;40	0.015582481623304648	
;41	0.006830554306829157	
;42	0.01679334051118601	
;43	0.019406083155967847	
;44	0.008095236857442551	
;45	0.015278609213984362	
;46	0.015665271758409326	
;47	0.009027665542198384	
;48	0.018386604153026582	
;49	0.00911364090092964	
;50	0.01332039892933246	
;51	0.018508881581409134	
;52	0.010664984232773846	
;53	0.0196847009977233	
;54	0.02195292124022485	
;55	0.020164517022605827	
;56	0.020970539602262073	
;57	0.016638110752467652	
;58	0.01525473484943045	
;59	0.007372551713273249	
;60	0.013692852768394851	
;61	0.011262052020943242	
;62	0.011571885710818916	
;63	0.007266528933509747	
;64	0.017069463861292697	
;65	0.018884350938158292	
;66	0.011435261381274571	
;67	0.021049754328221884	
;68	0.010764193550026804	
;69	0.015883902421475037	
;70	0.021012307186017355	
;71	0.022091465346514995	
;72	0.021560633177109	
;73	0.008028565336995919	
;74	0.01367094881843741	
;75	0.018546242183057844	
;76	0.00941612683427772	
;77	0.011086432342978993	
;78	0.01587673764475813	
;79	0.0175736362514644	
;80	0.019516726597174613	
;81	0.0109379994000821	
;82	0.008601791430009005	
;83	0.01983864298247971	
;84	0.013769444933451919	
;85	0.019692756721133138	
;86	0.015402642972814464	
;87	0.022416823080368426	
;88	0.011598798069737761	
;89	0.01407897506644531	
;90	0.01461267611962529	
;91	0.019755354072779025	
;92	0.00664052511865155	
;93	0.009411783690262826	
;94	0.01969881684572535	
;95	0.01932593995212314	
;96	0.019168984587756854	
;97	0.009188813640271637	
;98	0.020493700029141998	
;99	0.01841543894963443	
;100	0.019696411714013384	
;101	0.007755797455724802	
;102	0.009708313195058679	
;103	0.0078872716338312	
;104	0.009736906253249161	
;105	0.0097375557124986	
;106	0.008383199441374481	
;107	0.021594330456701605	
;108	0.009895212593572116	
;109	0.017326574601356264	
;110	0.019423664983934896	
;111	0.013142096169587064	
;112	0.016195745633616962	
;113	0.014343421081798296	
;114	0.020966085491454556	
;115	0.013048966151545717	
;116	0.008658125569807563	
;117	0.012089354521316658	
;118	0.017739806458605543	
;119	0.013842821571336001	
;120	0.020519717868960452	
;121	0.019101404515980847	
;122	0.01729889819324004	
;123	0.01280304871465824	
;124	0.018953123051500827	
;125	0.01337601992240424	
;126	0.013954768146033544	
;127	0.02120778010458943	
;128	0.012308119653708023	
;129	0.0159499925779152	
;130	0.008888561557052742	
;131	0.01952472465037662	
;132	0.006598157682157168	
;133	0.022677211504267488	
;134	0.015646965880133146	
;135	0.008917479028462256	
;136	0.015508755114321085	
;137	0.013118038548556218	
;138	0.018578384910536427	
;139	0.010903111064712163	
;140	0.007005807849021373	
;141	0.020469998840479196	
;142	0.020053791133346856	
;143	0.016682973314058	
;144	0.006653996511703312	
;145	0.0144176463315082	
;146	0.011344363783476525	
;147	0.006923603781288636	
;148	0.00914303685090112	
;149	0.0106857346217525	
;150	0.01032676816636537	
;151	0.010785926634313926	
;152	0.009458260499224201	
;153	0.012527775178621057	
;154	0.010135386782778779	
;155	0.010223877220465557	
;156	0.01239987462821992	
;157	0.020543220190425805	
;158	0.0070395835898326665	
;159	0.016539443534987246	
;160	0.01845140014519212	
;161	0.008457463152626696	
;162	0.008031040752157074	
;163	0.016512540199259986	
;164	0.015210735667965661	
;165	0.012995605996292464	
;166	0.022426774672014354	
;167	0.018914579076880246	
;168	0.015211177964697661	
;169	0.012958869939440376	
;170	0.008691490956952045	
;171	0.012999733604928685	
;172	0.012268399889122565	
;173	0.006498909988526165	
;174	0.011305385230707276	
;175	0.0146433892048751	
;176	0.017472017127682517	
;177	0.015296525107239441	
;178	0.022137834101885107	
;179	0.015316468248106918	
;180	0.011362709748171423	
;181	0.0157317919301134	
;182	0.015160259381012236	
;183	0.01509357507086444	
;184	0.019273109233917285	
;185	0.01306486189521483	
;186	0.010739293510896947	
;187	0.016347054914747878	
;188	0.014967345902657976	
;189	0.01894114901007774	
;190	0.019430480503754354	
;191	0.021436697303572085	
;192	0.020743975049456184	
;193	0.022417054760885905	
;194	0.01415801177542412	
;195	0.02280916830936748	
;196	0.010713799984681693	
;197	0.020769934621057796	
;198	0.01491165652219441	
;199	0.016719387691982664	
;200	0.018114144878101823	
;201	0.013596165058767002	
;202	0.015239771989982765	
;203	0.006735903665899393	
;204	0.00840496583751823	
;205	0.018175421902681142	
;206	0.01582542176128486	
;207	0.013035183371904593	
;208	0.017082703937720416	
;209	0.017256613354824882	
;210	0.013388374808450693	
;211	0.01992737226387947	
;212	0.022544137014468068	
;213	0.014330965236545503	
;214	0.012761627516035354	
;215	0.021768905342954257	
;216	0.016827912634906447	
;217	0.02124028742103751	
;218	0.01350053359506419	
;219	0.008727500462345753	
;220	0.01837155247604019	
;221	0.015835384168476817	
;222	0.013559759711175767	
;223	0.01639151763255839	
;224	0.01258367069253897	
;225	0.006899612772841017	
;226	0.008358323078095515	
;227	0.02172955131540541	
;228	0.009018920779223442	
;229	0.0225325006317584	
;230	0.015847975632484617	
;231	0.011597537068621728	
;232	0.011845108253874664	
;233	0.015002161585379018	
;234	0.018584309398737228	
;235	0.011541163072785032	
;236	0.010286111741641233	
;237	0.008187599702597899	
;238	0.011454728086787868	
;239	0.011158746579557227	
;240	0.016738337552123703	
;241	0.008608832683551042	
;242	0.008486676702862158	
;243	0.008285970120069482	
;244	0.01619921965941149	
;245	0.0222765498437069	
;246	0.0169089288566991	
;247	0.019086316530619898	
;248	0.022169607924100863	
;249	0.020149527626702322	
;250	0.016704251214742234	
;251	0.0212232642799547	
;252	0.009945692413957692	
;253	0.01796620369945744	
;254	0.011014923465764626	
;255	0.022422437278637925	
;256	0.015283475809154092	
;257	0.013432499107147115	
;258	0.014562766317864446	
;259	0.021880383519945118	
;260	0.014047586010041309	
;261	0.013908841873309328	
;262	0.01207437351656111	
;263	0.016234764529770504	
;264	0.011620734298254902	
;265	0.020006156765341614	
;266	0.018281747534098235	
;267	0.01924248808087385	
;268	0.007254065064496784	
;269	0.013800455392764177	
;270	0.016854176482726805	
;271	0.012362003163950128	
;272	0.018271760162700056	
;273	0.007939147756607378	
;274	0.015172592711844022	
;275	0.014814539584602188	
;276	0.021717373992777553	
;277	0.009492449761476703	
;278	0.01256949954296449	
;279	0.019380892383580463	
;280	0.07058267273741418	
;281	0.0116560616502189	
;282	0.008576697508564284	
;283	0.020857958433907656	
;284	0.022383656051391167	
;285	0.02187585602868967	
;286	0.007286134628431058	
;287	0.011557389223480076	
;288	0.01902670833547253	
;289	0.011343038429775368	
;290	0.17076413963937612	
;291	0.08838992216631192	
;292	0.017802470101545467	
;293	0.15318512921075744	
;294	0.07035608506587768	
;295	0.006866878311154318	
;296	0.014968968978335079	
;297	0.02151126640506867	
;298	0.21755109285507299	
;299	0.0067893885446166586	
;300	0.020813014911493694	
;301	0.014359060159329261	
;302	0.010750406904165732	
;303	0.07311128338166153	
;304	0.12724250294798295	
;305	0.20645383602260234	
;306	0.6738838494638835	
;307	0.21192371221614742	
;308	0.022183069137524335	
;309	0.016315592716053116	
;310	0.014353842988904074	
;311	0.009220657520967965	
;312	0.008447169557563477	
;313	0.010859645568877505	
;314	0.012767107314884578	
;315	0.022380123100246584	
;316	0.011389825533176664	
;317	0.021334920279538865	
;318	0.014258644973478393	
;319	0.020391793236818598	
;320	0.02067635152519796	
;321	0.011569429898438243	
;322	0.01570323946647774	
;323	0.008075122298106006	
;324	0.022570854290775273	
;325	0.020169088365429768	
;326	0.011309869059186654	
;327	0.021792473818014555	
;328	0.015241810498540715	
;329	0.006539127873561103	
;330	0.011855921359400948	
;331	0.013581478296505448	
;332	0.19811580526346545	
;333	0.013678265187528491	
;334	0.017760422270336064	
;335	0.00814778773619456	
;336	0.02051923127934243	
;337	0.015846033793878625	
;338	0.01703008422985142	
;339	0.021692191758105276	
;340	0.01582791452983934	
;341	0.0146347912021762	
;342	0.009233261127409943	
;343	0.01868341053799959	
;344	0.015611928347845515	
;345	0.01595468485589474	
;346	0.020865457404874825	
;347	0.017318714305273618	
;348	0.012767882080944131	
;349	0.00688501145740254	
;350	0.01230831512340532	
;351	0.01748992274727224	
;352	0.016153936687732122	
;353	0.017373205929992534	
;354	0.01612918739003596	
;355	0.01762232455189505	
;356	0.008354723535175086	
;357	0.021382888079636234	
;358	0.008602428063938251	
;359	0.01639497058467069	
;360	0.00950415236536957	
;361	0.02066412418059621	
;362	0.02066970167265048	
;363	0.00686137140235551	
;364	0.022867424470132475	
;365	0.01330956171446069	
;366	0.010845144344508693	
;367	0.00859626370156633	
;368	0.013148747168554987	
;369	0.008158154766923713	
;370	0.012717159220967068	
;371	0.007776653270441818	
;372	0.022199440434205887	
;373	0.02174981630453919	
;374	0.013554267043569952	
;375	0.01865138279172331	
;376	0.012168485833073514	
;377	0.013017680208236165	
;378	0.008448553070674002	
;379	0.009781526647895878	
;380	0.017406493291715827	
;381	0.007134089267616269	
;382	0.02034081002753205	
;383	0.008324290036268497	
;384	0.008899846045665627	
;385	0.011271404775264827	
;386	0.01770454578950798	
;387	0.015412920002183332	
;388	0.010042580842314523	
;389	0.012552889468584086	
;390	0.015998834040502154	
;391	0.01026329782013825	
;392	0.02279335676394081	
;393	0.011892928070719741	
;394	0.01791136093465654	
;395	0.01566950370437307	
;396	0.021204463917452388	
;397	0.007081820864401843	
;398	0.019192384648947066	
;399	0.006502653189190087	
;400	0.014386148402631234	
;401	0.007817438613110236	
;402	0.019324578837356755	
;403	0.012081748188828496	
;404	0.015392545267025326	
;405	0.009195141278054942	
;406	0.021580960782959093	
;407	0.013366321112076628	
;408	0.009756652103658076	
;409	0.013644425008888171	
;410	0.016043745151307007	
;411	0.01503014163930366	
;412	0.009615597836681394	
;413	0.011589168397119293	
;414	0.009504267333467643	
;415	0.01779981385940647	
;416	0.022312674800114084	
;417	0.013359101828043705	
;418	0.016035850243781263	
;419	0.01767953279945216	
;420	0.016550444932116045	
;421	0.007042135829422772	
;422	0.010497709589018932	
;423	0.014209700808528129	
;424	0.008324275236033041	
;425	0.011243648126901122	
;426	0.009200511516205637	
;427	0.019275767372709775	
;428	0.02206998777793714	
;429	0.016399171687079578	
;430	0.015760081805516184	
;431	0.017035253746256553	
;432	0.011802240048431578	
;433	0.022728645440345023	
;434	0.011828725968369208	
;435	0.018752479139177197	
;436	0.022864515744939327	
;437	0.017675675456947045	
;438	0.018685904278808556	
;439	0.0193359238255318	
;440	0.021050329131702458	
;441	0.015498985884168702	
;442	0.01986144937323684	
;443	0.012430928298449506	
;444	0.018742340115578123	
;445	0.013404875886734544	
;446	0.01593730772070457	
;447	0.019964954842969763	
;448	0.01795462684517553	
;449	0.01634697804369902	
;450	0.008726138312548738	
;451	0.0072251323461518194	
;452	0.011269777143641716	
;453	0.019725367544353736	
;454	0.02244420589376884	
;455	0.009274131669050419	
;456	0.022159424908450024	
;457	0.015068341354137847	
;458	0.018669992386504953	
;459	0.020456086080775246	
;460	0.012913830283063966	
;461	0.009265293777789558	
;462	0.014564727403696413	
;463	0.017007339400050437	
;464	0.009381824011224681	
;465	0.010809640853319773	
;466	0.017237881851744862	
;467	0.01719859714174153	
;468	0.016613174170747425	
;469	0.014239497404578782	
;470	0.01729519909635865	
;471	0.013934445820677648	
;472	0.01916210839276974	
;473	0.0222874131178411	
;474	0.013636093417762434	
;475	0.008381216000774308	
;476	0.015278518878808366	
;477	0.02202123545509404	
;478	0.006739163683839887	
;479	0.01890034394136774	
;480	0.016303228765209062	
;481	0.012166530802888853	
;482	0.018817366870112533	
;483	0.007306897462499844	
;484	0.019994323779525206	
;485	0.016842979414366223	
;486	0.011664674033992435	
;487	0.020048429518881732	
;488	0.01112785481973427	
;489	0.02000173687693932	
;490	0.010436132430514113	
;491	0.015452292917821043	
;492	0.007751477164121562	
;493	0.016454653991923973	
;494	0.02266085499689411	
;495	0.0072426403875595425	
;496	0.01592451030285412	
;497	0.018531981048280032	
;498	0.01352835512549778	
;499	0.007441056175953548	
;500	0.01097978491941139	
;501	0.021790418509691305	
;502	0.014448148195150596	
;503	0.018030893255432147	
;504	0.022693158287022768	
;505	0.006646020440376863	
;506	0.00908944277536446	
;507	0.020719752977442857	
;508	0.008022443136561268	
;509	0.007968357871038756	
;510	0.011544246403323535	
;511	0.014399591372639001	
;512	0.009789559385469198	
;513	0.022352984058057013	
;514	0.006909971834150325	
;515	0.00947052355356079	
;516	0.021474901926668517	
;517	0.015727006496404676	
;518	0.009176132728276613	
;519	0.0142956753200702	
;520	0.007416308538566259	
;521	0.010440455914579726	
;522	0.0076084568850641795	
;523	0.01366116200533039	
;524	0.01849490071273846	
;525	0.018192572774571116	
;526	0.014006055286891953	
;527	0.009362768989064836	
;528	0.014012903662361822	
;529	0.013252671419157674	
;530	0.01731595074482724	
;531	0.00944136996168549	
;532	0.011731940289191434	
;533	0.013965722333498787	
;534	0.021419711511485497	
;535	0.00922741563227047	
;536	0.009941574400086159	
;537	0.0227226626908933	
;538	0.021153588383125407	
;539	0.021708284031131234	
;540	0.008758538542405986	
;541	0.011509460289196794	
;542	0.01971014454354413	
;543	0.0189537269012882	
;544	0.013563083655104422	
;545	0.009589242002155274	
;546	0.019256718067647442	
;547	0.01302382941298332	
;548	0.017905915168089436	
;549	0.010228674009294739	
;550	0.007352531062851415	
;551	0.019678743351757323	
;552	0.007967169495520987	
;553	0.008865283029515548	
;554	0.014837107060721158	
;555	0.010266054628999039	
;556	0.01826415606459391	
;557	0.01923291950562984	
;558	0.016668506915325784	
;559	0.021132947620540316	
;560	0.014425122567691276	
;561	0.022556979922271132	
;562	0.018450109840437486	
;563	0.0140495525362247	
;564	0.006939644861724128	
;565	0.012820364159191947	
;566	0.009186343060132615	
;567	0.0071680326071300185	
;568	0.00875567903294661	
;569	0.009040966547420889	
;570	0.00800608289552756	
;571	0.02139183357590269	
;572	0.019003741559397543	
;573	0.015624251945744719	
;574	0.020177438445143827	
;575	0.014519964514451983	
;576	0.018513477935397486	
;577	0.012398798370087935	
;578	0.011150737448892108	
;579	0.01567049556692911	
;580	0.01227811168582388	
;581	0.015735438310679292	
;582	0.008711571043174793	
;583	0.020118273145807188	
;584	0.009265922254077562	
;585	0.01220527309908508	
;586	0.012619396631873081	
;587	0.01957651519860291	
;588	0.02008763039737107	
;589	0.012202185904489873	
;590	0.008334351949857058	
;591	0.018638742914154828	
;592	0.01170085463495109	
;593	0.009492263266577436	
;594	0.016357082273722394	
;595	0.007227135336556279	
;596	0.014383387192484364	
;597	0.01735586234299265	
;598	0.01702347596520154	
;599	0.017693845001744646	
;600	0.017593763898544817	
;601	0.015458837529986969	
;602	0.006601365468272572	
;603	0.01694468731680985	
;604	0.014364281600581355	
;605	0.016236738452794656	
;606	0.02197540781720395	
;607	0.017439724952474988	
;608	0.008630103231541952	
;609	0.021545426393403944	
;610	0.008809910981516917	
;611	0.016121048709889157	
;612	0.019763703461266702	
;613	0.01862100761668217	
;614	0.021177274312412696	
;615	0.0200157809130332	
;616	0.0067284414643285035	
;617	0.006734760986434533	
;618	0.019626667733806818	
;619	0.022621232609010933	
;620	0.007986483834147929	
;621	0.011169940216266145	
;622	0.013472190737958896	
;623	0.009347813747085284	
;624	0.0143350942374755	
;625	0.02156649692291491	
;626	0.008187748918237118	
;627	0.019358019482717623	
;628	0.01847259278130306	
;629	0.021722547629019255	
;630	0.006856686427346008	
;631	0.020170924269575858	
;632	0.01605694347355595	
;633	0.016618202466315367	
;634	0.022442393502010244	
;635	0.01993335401866625	
;636	0.012488053573104502	
;637	0.01124214877666172	
;638	0.012211075446736776	
;639	0.02058007097771055	
;640	0.019604582766433863	
;641	0.01741450800537065	
;642	0.019607408835669336	
;643	0.017738550387173025	
;644	0.01933844413635898	
;645	0.011575425302416386	
;646	0.008840881437446636	
;647	0.017511822165526537	
;648	0.015405834359909897	
;649	0.00801406346487216	
;650	0.013873105855597137	
;651	0.01657642493935693	
;652	0.013319793726451585	
;653	0.009805797192371766	
;654	0.011554784720065202	
;655	0.014508845623138613	
;656	0.018726351971990476	
;657	0.012932332271410121	
;658	0.013368344186083157	
;659	0.02189048053371566	
;660	0.01191952781404524	
;661	0.01029735443260642	
;662	0.02080178104842808	
;663	0.012474211200831836	
;664	0.010309311908395562	
;665	0.009648212783771273	
;666	0.014799966592180925	
;667	0.006826905694448895	
;668	0.009369803382712644	
;669	0.018151252940256303	
;670	0.008646828331446569	
;671	0.015909606771197377	
;672	0.013679462217137362	
;673	0.009840908345885423	
;674	0.016897487138489358	
;675	0.019820701694912523	
;676	0.013209276882881725	
;677	0.01853302006347672	
;678	0.019860892110355927	
;679	0.022556086051849885	
;680	0.01858687729506729	
;681	0.01404024642160302	
;682	0.01978109389014339	
;683	0.014166621232244653	
;684	0.007115717264147966	
;685	0.018850167713726586	
;686	0.021646078646023248	
;687	0.009406559512938522	
;688	0.01168959827848792	
;689	0.00706534368096998	
;690	0.020363781399499008	
;691	0.013915886494308109	
;692	0.022215336778368722	
;693	0.008852121122292281	
;694	0.009737854975268113	
;695	0.012866379943030276	
;696	0.01614477723540933	
;697	0.015070997533937362	
;698	0.017233958541106507	
;699	0.008899909111612363	
;700	0.007183081180905364	
;701	0.01613095139103408	
;702	0.02115860332127662	
;703	0.011153673144510214	
;704	0.011809980677415975	
;705	0.01036046171399159	
;706	0.009513078138630676	
;707	0.011620571615478711	
;708	0.013204941532867815	
;709	0.01497158506351384	
;710	0.02279792764417179	
;711	0.01765464367330598	
;712	0.014381124399130793	
;713	0.011116566178575905	
;714	0.01613793683321084	
;715	0.016115450440181908	
;716	0.0157493442647985	
;717	0.010732695871731045	
;718	0.022087310105324928	
;719	0.02200256023729757	
;720	0.009709977729113372	
;721	0.007108341133712429	
;722	0.011538321058209863	
;723	0.013246894688486974	
;724	0.007864883192616674	
;725	0.009022675449312621	
;726	0.010044370786139501	
;727	0.014361874818634629	
;728	0.006965283561107994	
;729	0.015364663548990581	
;730	0.0182274074314282	
;731	0.01822030505008262	
;732	0.00889288421970761	
;733	0.013482158713418983	
;734	0.008331350863935024	
;735	0.007112961371433653	
;736	0.01858174401165897	
;737	0.014285895630319932	
;738	0.017579538454268885	
;739	0.006725519415119952	
;740	0.010319146018711917	
;741	0.009121982423850308	
;742	0.008532060816349116	
;743	0.007423075993868261	
;744	0.011345785684875955	
;745	0.01961643274408727	
;746	0.006544664556950729	
;747	0.008007706266543792	
;748	0.02011062542234064	
;749	0.007149871579301777	
;750	0.016492830367291846	
;751	0.009421810609281024	
;752	0.02286233377846799	
;753	0.02216986351163635	
;754	0.022426273775859897	
;755	0.020936020407038652	
;756	0.02268286914002544	
;757	0.021589919485159346	
;758	0.019695097501985052	
;759	0.01755452345802624	
;760	0.013479377902231885	
;761	0.017472204645074874	
;762	0.008359980687306624	
;763	0.013225588486499254	
;764	0.011080476853039931	
;765	0.020256600906686323	
;766	0.016565703801316424	
;767	0.015679700070793307	
;768	0.022560546134119494	
;769	0.007785986748907917	
;770	0.011049789397227852	
;771	0.009491455996945336	
;772	0.01582044010533764	
;773	0.011119969832157812	
;774	0.009524424654271467	
;775	0.01847344053105317	
;776	0.011076227985712159	
;777	0.010751340300854943	
;778	0.00812136947061823	
;779	0.01710697641640204	
;780	0.007949828863190714	
;781	0.022634206296137695	
;782	0.00863853735136873	
;783	0.01830186473288276	
;784	0.006659359221256974	
;785	0.010952367949409453	
;786	0.01486761718792231	
;787	0.012283828027167078	
;788	0.020427288127986	
;789	0.02053324309720168	
;790	0.00830542240404697	
;791	0.00897291286025393	
;792	0.015087492332266158	
;793	0.010786912206921295	
;794	0.015631258464429074	
;795	0.018788942903882774	
;796	0.014479280827225568	
;797	0.01627393937845998	
;798	0.021206205662367136	
;799	0.015640042684980916	
;800	0.006593724109833649	
;801	0.009370412095848985	
;802	0.016172390901324506	
;803	0.00836971718766903	
;804	0.015230546947001053	
;805	0.019551560313958372	
;806	0.017036814031159832	
;807	0.02083481782611183	
;808	0.015172949466386232	
;809	0.01531761369967392	
;810	0.00975525785363724	
;811	0.013196041862241534	
;812	0.008104483266951944	
;813	0.016791977890794497	
;814	0.019321024935210998	
;815	0.010920837503394768	
;816	0.01258642466050089	
;817	0.020745435663641325	
;818	0.0129146830183838	
;819	0.015450694601654725	
;820	0.014225851473737554	
;821	0.012808797869670064	
;822	0.007039108981475178	
;823	0.01059493880291434	
;824	0.0076708716167803006	
;825	0.020230731238331	
;826	0.021516030410028152	
;827	0.02234267445886098	
;828	0.018171011638188957	
;829	0.020584448033433792	
;830	0.010705837927140215	
;831	0.021179541914004778	
;832	0.015006540755607324	
;833	0.012927283184502047	
;834	0.02108441940056871	
;835	0.02199376889986461	
;836	0.020873340985612127	
;837	0.013234234215484713	
;838	0.009940141722953228	
;839	0.009449962345558772	
;840	0.009440470646329496	
;841	0.02006143486643331	
;842	0.011040491508675181	
;843	0.00838614566321054	
;844	0.021294890637660702	
;845	0.01159698047269023	
;846	0.007203957740813509	
;847	0.008951435108140435	
;848	0.01584340189033591	
;849	0.0165796537840617	
;850	0.01858208095442365	
;851	0.01477705379651252	
;852	0.01770617397955484	
;853	0.007662122720766136	
;854	0.013959277438081978	
;855	0.021625855701227163	
;856	0.009510642946985297	
;857	0.020040508092600096	
;858	0.01099794695962844	
;859	0.02235793357249996	
;860	0.006569912170290841	
;861	0.011621430617671154	
;862	0.019147434730457092	
;863	0.008622102929295529	
;864	0.022578262551915113	
;865	0.014788565688882168	
;866	0.013914580661205888	
;867	0.012195884835697167	
;868	0.013489129161120729	
;869	0.007979721063898092	
;870	0.013364716765744807	
;871	0.008918016693947966	
;872	0.01271918591694686	
;873	0.021607769116542892	
;874	0.012473152416022645	
;875	0.020153947510748844	
;876	0.011141864008767183	
;877	0.017842072145957302	
;878	0.018604025074642858	
;879	0.020704423498513556	
;880	0.013921258540403998	
;881	0.011814042513301795	
;882	0.02007592417911279	
;883	0.02050365483184073	
;884	0.010382940823367522	
;885	0.013981609323804024	
;886	0.01372877165056542	
;887	0.012630417288856747	
;888	0.020010215884061693	
;889	0.007325362916744941	
;890	0.017938681085004047	
;891	0.011068739814562821	
;892	0.01371248038346668	
;893	0.022910061234572465	
;894	0.02013892368471393	
;895	0.00884311019436028	
;896	0.009923703510734664	
;897	0.013877953341973065	
;898	0.014295969787928015	
;899	0.021250468107217212	
;900	0.019657851193147707	
;901	0.0193458321149569	
;902	0.01437502815675195	
;903	0.014859675328809592	
;904	0.016040346331147405	
;905	0.02146184100775299	
;906	0.01602285461990184	
;907	0.017001396913505242	
;908	0.017256866828017123	
;909	0.01996586704282606	
;910	0.018586990863304016	
;911	0.015313187165119738	
;912	0.006951620603565272	
;913	0.012190223554371469	
;914	0.01925152344294131	
;915	0.01131883611321568	
;916	0.007542868399964977	
;917	0.014599905145651269	
;918	0.0075595624069960095	
;919	0.009018791428361747	
;920	0.007941599433649707	
;921	0.011406544553306145	
;922	0.012601469903020945	
;923	0.02015314624551903	
;924	0.020558252869698812	
;925	0.019965636617132722	
;926	0.017229158996427574	
;927	0.02126000427788024	
;928	0.015269881198802245	
;929	0.007480072897669494	
;930	0.022238771416694576	
;931	0.012815421590733518	
;932	0.017348030105192647	
;933	0.00745376193285635	
;934	0.018150287299272323	
;935	0.018297335570408805	
;936	0.01935378352321296	
;937	0.021598151024266224	
;938	0.022237372803136986	
;939	0.011447683503142276	
;940	0.01731132251474441	
;941	0.009967200293171398	
;942	0.0065667459438535835	
;943	0.017623028117976492	
;944	0.020971777122721105	
;945	0.014239276656837968	
;946	0.011824897458054623	
;947	0.007111107382405068	
;948	0.00896586665454271	
;949	0.01069242864210726	
;950	0.011991618473738183	
;951	0.014397554662543088	
;952	0.012636721931912592	
;953	0.018247598768046335	
;954	0.011218977333678309	
;955	0.013910962042332796	
;956	0.01924364227591888	
;957	0.010035043793491329	
;958	0.022139620686508443	
;959	0.012417553595189222	
;960	0.021139588778967565	
;961	0.014094689033190666	
;962	0.02167062897437763	
;963	0.011056016584818648	
;964	0.020156757327314152	
;965	0.018787211960144233	
;966	0.01621247995368115	
;967	0.009063771744494405	
;968	0.02213901261684555	
;969	0.008459321288258922	
;970	0.009486976075376855	
;971	0.013371664961517269	
;972	0.022688425818477475	
;973	0.010357853478871202	
;974	0.009167820438009922	
;975	0.010727389163933088	
;976	0.009748244431001255	
;977	0.007439198262215734	
;978	0.018699992801783808	
;979	0.00766833173520035	
;980	0.010150759512578046	
;981	0.00927067129275708	
;982	0.020499938126131923	
;983	0.020351054063321893	
;984	0.01648760562878877	
;985	0.013030499512452389	
;986	0.018259832155186357	
;987	0.019677906950530264	
;988	0.01961078444044093	
;989	0.008540599603618087	
;990	0.01984552796671533	
;991	0.016556577105456848	
;992	0.02150236877741875	
;993	0.014345324696420058	
;994	0.02124941927640682	
;995	0.007256553152932259	
;996	0.011582893772513324	
;997	0.00836422877768081	
;998	0.016117569265614272	
;999	0.009289199161427958	
;1000	0.007943673389478639	
;1001	0.016452568080910734	
;1002	0.01334134833203875	
;1003	0.01702827706109024	
;1004	0.01894396157825771	
;1005	0.006490594948125377	
;1006	0.018035364191826078	
;1007	0.022167266681972792	
;1008	0.012799944608665782	
;1009	0.014638242060294961	
;1010	0.01761862165657481	
;1011	0.021645796941525183	
;1012	0.0077350087442520565	
;1013	0.01919717445885903	
;1014	0.008168870537022139	
;1015	0.012638002322998913	
;1016	0.009684170552469439	
;1017	0.014293995479512244	
;1018	0.00953469511892304	
;1019	0.014255325503264697	
;1020	0.02008952489139925	
;1021	0.009290600780744533	
;1022	0.013361908440356441	
;1023	0.007706061485621111	
;1024	0.018625038863464036	
;1025	0.020462814607423337	
;1026	0.0064617977972293425	
;1027	0.01919445196963637	
;1028	0.009551161086395399	
;1029	0.021311904314986713	
;1030	0.008089327245515724	
;1031	0.015967430962141194	
;1032	0.017938848248427956	
;1033	0.008328039517742497	
;1034	0.022653361207470028	
;1035	0.021998308114458465	
;1036	0.0068307696357879765	
;1037	0.019528609919274593	
;1038	0.011616064584203042	
;1039	0.008004391061583098	
;1040	0.017678622433531146	
;1041	0.022206792181171008	
;1042	0.008754923323649275	
;1043	0.013132109898470313	
;1044	0.02163509914808273	
;1045	0.016200207008118934	
;1046	0.008564352822149996	
;1047	0.01689199801927103	
;1048	0.008306509086264968	
;1049	0.01744640972257829	
;1050	0.018081134736418744	
;1051	0.008387897811233867	
;1052	0.011109552848375852	
;1053	0.014166640760695275	
;1054	0.008705689632278345	
;1055	0.011123567180613077	
;1056	0.020138633474198166	
;1057	0.018534634302193022	
;1058	0.013843647725108543	
;1059	0.01273482211991195	
;1060	0.007253540255479313	
;1061	0.019721564130575138	
;1062	0.014931798596268562	
;1063	0.021648812963081944	
;1064	0.015236455095474215	
;1065	0.009535460764548509	
;1066	0.019011015288372533	
;1067	0.015613131794318225	
;1068	0.010699305932011183	
;1069	0.008971338891423122	
;1070	0.011668928444008693	
;1071	0.006734187591904785	
;1072	0.013702429336445991	
;1073	0.022580705369050533	
;1074	0.01228051656117377	
;1075	0.01082591544444896	
;1076	0.018561437171194357	
;1077	0.018665962980658014	
;1078	0.0182024751917899	
;1079	0.01718872293457882	
;1080	0.010578075047310117	
;1081	0.015503917609939117	
;1082	0.015309119133566225	
;1083	0.013290793665997712	
;1084	0.020234215428366203	
;1085	0.01996085696479029	
;1086	0.008921951834213477	
;1087	0.006446977113144517	
;1088	0.008059963719700526	
;1089	0.022615140355942375	
;1090	0.020342435103209537	
;1091	0.020041488661131136	
;1092	0.019829060195370528	
;1093	0.00923626637695584	
;1094	0.020842128561836135	
;1095	0.015779075305648586	
;1096	0.016907480837163584	
;1097	0.010732568523012603	
;1098	0.01110211936917403	
;1099	0.01691340604216649	
;1100	0.011426686796440799	
;1101	0.020365602864995815	
;1102	0.02138895480604232	
;1103	0.019723291070168337	
;1104	0.012595291117846186	
;1105	0.01537566175027141	
;1106	0.011294787646257553	
;1107	0.016572174425734987	
;1108	0.017447516132304077	
;1109	0.013442134134851295	
;1110	0.018696428019799618	
;1111	0.01149885485068738	
;1112	0.018465713559592863	
;1113	0.01085297293372042	
;1114	0.021448336951165384	
;1115	0.007518351285935957	
;1116	0.02192637262184053	
;1117	0.012743787197706503	
;1118	0.01831169050617064	
;1119	0.021011640255851453	
;1120	0.02068431369895305	
;1121	0.015073180004096862	
;1122	0.016787943039431322	
;1123	0.022830470886611533	
;1124	0.007275740268678836	
;1125	0.014396765285149951	
;1126	0.009345342346095346	
;1127	0.015550510523348484	
;1128	0.012386027431427386	
;1129	0.01853390508231635	
;1130	0.012142411088629899	
;1131	0.018725302671136458	
;1132	0.012938703532184974	
;1133	0.008386479331612639	
;1134	0.008170946415780912	
;1135	0.011453023712273702	
;1136	0.007898914710694933	
;1137	0.020457020707230777	
;1138	0.010520676873470393	
;1139	0.01855570620373879	
;1140	0.02029008369819846	
;1141	0.011850394266811417	
;1142	0.02233424511332297	
;1143	0.019193971214922022	
;1144	0.015324293736235063	
;1145	0.010344769918763829	
;1146	0.016080531197382415	
;1147	0.02276439146198418	
;1148	0.014598205001853866	
;1149	0.010223759766529455	
;1150	0.0077735232147588635	
;1151	0.022666017419632974	
;1152	0.01132950625120127	
;1153	0.006596198797943697	
;1154	0.02080388453154834	
;1155	0.010353222307216574	
;1156	0.01974702186362658	
;1157	0.007377681830539884	
;1158	0.00833875393180584	
;1159	0.021582380240844384	
;1160	0.016369149524921772	
;1161	0.013121013830488646	
;1162	0.021080244420804643	
;1163	0.017650437080192514	
;1164	0.011666518262195853	
;1165	0.01843304822353328	
;1166	0.007507926917971801	
;1167	0.02284993323876772	
;1168	0.021251806279513098	
;1169	0.0157673248179528	
;1170	0.017963272168627493	
;1171	0.015472138574809943	
;1172	0.007487427098246328	
;1173	0.01566005096771507	
;1174	0.011584559647134405	
;1175	0.020539400863551605	
;1176	0.021984184668873124	
;1177	0.01987721264782074	
;1178	0.01769613063357775	
;1179	0.02256475205640033	
;1180	0.01570873958024212	
;1181	0.015858792924136764	
;1182	0.01957166189884926	
;1183	0.022539116832180232	
;1184	0.01116522973021003	
;1185	0.01772948603446205	
;1186	0.016175847682810975	
;1187	0.012981239512801453	
;1188	0.01363055868634405	
;1189	0.013864787417607362	
;1190	0.008374650786602834	
;1191	0.017219474814148438	
;1192	0.011220274856701995	
;1193	0.01731939791344524	
;1194	0.015134851618576696	
;1195	0.019894096484656718	
;1196	0.018749005174801513	
;1197	0.007726534211438592	
;1198	0.007365744181547977	
;1199	0.016554944432839013	
;1200	0.01598799863233479	
;1201	0.010463378575889736	
;1202	0.006891084911766435	
;1203	0.006694917861086339	
;1204	0.021539870278493432	
;1205	0.018155465705990432	
;1206	0.022110902132366574	
;1207	0.011408594489602075	
;1208	0.013156522391571567	
;1209	0.010021987647364542	
;1210	0.012060017578712204	
;1211	0.008601952431017384	
;1212	0.020501176602625935	
;1213	0.008899319290021093	
;1214	0.009256131751896579	
;1215	0.007295133664434675	
;1216	0.009501794274289677	
;1217	0.015363560647904517	
;1218	0.011502389784238929	
;1219	0.015379965253751727	
;1220	0.021866122965702735	
;1221	0.014648471735532229	
;1222	0.011292623873034063	
;1223	0.010422976850454388	
;1224	0.00761325797542969	
;1225	0.019682178220424618	
;1226	0.015534835488636309	
;1227	0.018585641445734213	
;1228	0.020863979104542196	
;1229	0.01787087560233699	
;1230	0.01579162641301685	
;1231	0.022773871842229128	
;1232	0.016228511698445174	
;1233	0.014784968911342995	
;1234	0.01942352755103747	
;1235	0.012754847005314826	
;1236	0.00903731601950291	
;1237	0.022486267766563928	
;1238	0.017786068725689008	
;1239	0.0070760334632375115	
;1240	0.007585447861961187	
;1241	0.00940180496405353	
;1242	0.008798909735543195	
;1243	0.021421329816723605	
;1244	0.012981911450140264	
;1245	0.02251550116891316	
;1246	0.015863295567489964	
;1247	0.010203990736074526	
;1248	0.02225087351816679	
;1249	0.014264291122334214	
;1250	0.02175500898598931	
;1251	0.01142398598697192	
;1252	0.012255263431109362	
;1253	0.014906219109075214	
;1254	0.009260793537951182	
;1255	0.00815139370972162	
;1256	0.017792279169079033	
;1257	0.010562182958773413	
;1258	0.014831919020940224	
;1259	0.02243156915851466	
;1260	0.02095035929662833	
;1261	0.010916679635608346	
;1262	0.01771045411117728	
;1263	0.008740817813730848	
;1264	0.019261769024853433	
;1265	0.019690980593698698	
;1266	0.006917279912863044	
;1267	0.011227665999955288	
;1268	0.022062127662944523	
;1269	0.020706405259200526	
;1270	0.008247711461897497	
;1271	0.016674054867018253	
;1272	0.008542430332560627	
;1273	0.0223325587790407	
;1274	0.01421716768616422	
;1275	0.006934722746275398	
;1276	0.021137930891028934	
;1277	0.019678297109238335	
;1278	0.021591573247813214	
;1279	0.013414284117905776	
;1280	0.02223750228378802	
;1281	0.01462726406929412	
;1282	0.016555795341924518	
;1283	0.0125032160677816	
;1284	0.011582013157598013	
;1285	0.007439939358184052	
;1286	0.011056855180741593	
;1287	0.012220437857327019	
;1288	0.0226523055560472	
;1289	0.01904719037851629	
;1290	0.011453553922002787	
;1291	0.006597264741292415	
;1292	0.01006485708809892	
;1293	0.018247513157914712	
;1294	0.018457286953038877	
;1295	0.021406922448930537	
;1296	0.008857223516672976	
;1297	0.011639910271908544	
;1298	0.012712230047655945	
;1299	0.00803719877063999	
;1300	0.020564870837623424	
;1301	0.015003169969847427	
;1302	0.016586911638958226	
;1303	0.009062030812066368	
;1304	0.0148851121415173	
;1305	0.01902247924361454	
;1306	0.017767404960162516	
;1307	0.01377148853599197	
;1308	0.022063547085203576	
;1309	0.021300254491875892	
;1310	0.022165443694967035	
;1311	0.020207949069369402	
;1312	0.013270489701791482	
;1313	0.01637055080074194	
;1314	0.012589175838574303	
;1315	0.018038799395447107	
;1316	0.011329918671181239	
;1317	0.007526877060425674	
;1318	0.016798614227117373	
;1319	0.013660024991899852	
;1320	0.01392189304675909	
;1321	0.019951444969096992	
;1322	0.009818624984380476	
;1323	0.007542531264549777	
;1324	0.021672394129781464	
;1325	0.010082378755829884	
;1326	0.01055315137248524	
;1327	0.018806582328462832	
;1328	0.017474705805023506	
;1329	0.01609765541341233	
;1330	0.019534186995873674	
;1331	0.00946874651292255	
;1332	0.01857570641015858	
;1333	0.019229500204066146	
;1334	0.01899032534138558	
;1335	0.021736316208406853	
;1336	0.015242071715294124	
;1337	0.013396553274740548	
;1338	0.022369724289408574	
;1339	0.01071631368014748	
;1340	0.014016877337713054	
;1341	0.017813536723260973	
;1342	0.014563846600828814	
;1343	0.016861373158030147	
;1344	0.013866995939743736	
;1345	0.01389457848093462	
;1346	0.01001532095492377	
;1347	0.018628341787839328	
;1348	0.015659589377801507	
;1349	0.020504982296671345	
;1350	0.008991159271703098	
;1351	0.011648030942536334	
;1352	0.020442031489148412	
;1353	0.021461918895800045	
;1354	0.02184299315830809	
;1355	0.021498855000992242	
;1356	0.006482209671582316	
;1357	0.007427622366524514	
;1358	0.011676129378207866	
;1359	0.010153818927803855	
;1360	0.018780100375225896	
;1361	0.0178916916542206	
;1362	0.01618636479726486	
;1363	0.010241664212815324	
;1364	0.017177959173935966	
;1365	0.017379567769421192	
;1366	0.018636762290982694	
;1367	0.021318242631642424	
;1368	0.011202220563503331	
;1369	0.01537029404360812	
;1370	0.011599086145030926	
;1371	0.011821975401959867	
;1372	0.019905422526380123	
;1373	0.01909431692066242	
;1374	0.011236034152056389	
;1375	0.013568706092649156	
;1376	0.012553331060469814	
;1377	0.011289013667219556	
;1378	0.017962612386744094	
;1379	0.010575226775737585	
;1380	0.010199582664703407	
;1381	0.021847833567486482	
;1382	0.01300321498834316	
;1383	0.008788358244769314	
;1384	0.00834236870667763	
;1385	0.022697670937833758	
;1386	0.012854771159536989	
;1387	0.006848420078226403	
;1388	0.02277211927933695	
;1389	0.007442167314881865	
;1390	0.006599869036383402	
;1391	0.008220772678879558	
;1392	0.016189737608497987	
;1393	0.009883625229524498	
;1394	0.014109370315068951	
;1395	0.013173603826735186	
;1396	0.019177237556487377	
;1397	0.006715129654449205	
;1398	0.007653691174989994	
;1399	0.017584434700047922	
;1400	0.018391509747684987	
;1401	0.02198056615837573	
;1402	0.012176257225651268	
;1403	0.01334227434270897	
;1404	0.009045976126213993	
;1405	0.015091949389064229	
;1406	0.0133464469793799	
;1407	0.018193269321937166	
;1408	0.017555003485207086	
;1409	0.008070015343286222	
;1410	0.012690381222141873	
;1411	0.018860924171328904	
;1412	0.009440675211207773	
;1413	0.012483017030329328	
;1414	0.008352072398355198	
;1415	0.007345076078883328	
;1416	0.008938014145410901	
;1417	0.018421225376110007	
;1418	0.018121044914947232	
;1419	0.018221192802998457	
;1420	0.010436710412632074	
;1421	0.011899095783767836	
;1422	0.01638970833746504	
;1423	0.011594889070954972	
;1424	0.022226830945879045	
;1425	0.013127891676667397	
;1426	0.015236392758197994	
;1427	0.013503928447589965	
;1428	0.008937423154714023	
;1429	0.008500132066802066	
;1430	0.012458281768954818	
;1431	0.009619117377887454	
;1432	0.020255165707860887	
;1433	0.02151374178721584	
;1434	0.021467936256896466	
;1435	0.015479384115209301	
;1436	0.017437825829193742	
;1437	0.014745226545460309	
;1438	0.0163804632109229	
;1439	0.014977767932820735	
;1440	0.020552871060929182	
;1441	0.017530316627574642	
;1442	0.02162135664020187	
;1443	0.01391546116853166	
;1444	0.019367808663774622	
;1445	0.0066189328924434665	
;1446	0.009058110910078262	
;1447	0.006608106688557776	
;1448	0.01780089405014719	
;1449	0.011101623788294648	
;1450	0.014327019661839337	
;1451	0.011020180801397085	
;1452	0.017207746548813168	
;1453	0.014929988839012002	
;1454	0.011065100740982839	
;1455	0.009290602276698345	
;1456	0.011319700096123562	
;1457	0.021089200767231104	
;1458	0.00836123132599769	
;1459	0.017790065791557827	
;1460	0.0152701935060773	
;1461	0.008000509973165584	
;1462	0.02106030547548943	
;1463	0.010713883623564171	
;1464	0.018228864712188153	
;1465	0.007248607880579612	
;1466	0.014138534206166306	
;1467	0.02083475884993987	
;1468	0.014965818825643388	
;1469	0.018459273806228606	
;1470	0.015329587523855707	
;1471	0.011476461608993368	
;1472	0.009771953848259301	
;1473	0.020507276860751048	
;1474	0.008544933247732185	
;1475	0.02073608234839731	
;1476	0.022665836482643073	
;1477	0.01828006043122988	
;1478	0.015063548442835589	
;1479	0.022540601279395073	
;1480	0.022778532756712818	
;1481	0.01526481676212301	
;1482	0.008667218371810535	
;1483	0.014297567623111317	
;1484	0.02133751478139743	
;1485	0.021975546834747377	
;1486	0.008205619762546018	
;1487	0.015320097663427179	
;1488	0.020102663775658752	
;1489	0.009619125271124336	
;1490	0.014266260526269533	
;1491	0.020143721522403967	
;1492	0.020729948027098214	
;1493	0.02001233274590786	
;1494	0.011336566696209834	
;1495	0.02232176262249054	
;1496	0.009101955487480586	
;1497	0.01696462448035056	
;1498	0.007723054657796714	
;1499	0.01791476517187353	
;1500	0.010507524666296453	
;1501	0.0189265562150754	
;1502	0.0076727007567237585	
;1503	0.019795490403186816	
;1504	0.021684620963837425	
;1505	0.012757131655649977	
;1506	0.011721111033669842	
;1507	0.016286319284103627	
;1508	0.015237373478637522	
;1509	0.01085422386964799	
;1510	0.014143824688927003	
;1511	0.012316616082150959	
;1512	0.011511676092643239	
;1513	0.019067523181457338	
;1514	0.019851339956907285	
;1515	0.020242070070466432	
;1516	0.018773542743594187	
;1517	0.019467122544058	
;1518	0.007015968922848492	
;1519	0.01898549677352949	
;1520	0.006621962460852883	
;1521	0.01359643560940305	
;1522	0.017756413617777158	
;1523	0.022277548660757093	
;1524	0.013534272660011126	
;1525	0.008452830301905842	
;1526	0.011188544913135569	
;1527	0.02273952122763154	
;1528	0.016200813062917485	
;1529	0.016529846194089152	
;1530	0.014051133328199062	
;1531	0.015552390319715198	
;1532	0.02079569781439318	
;1533	0.007670452819204642	
;1534	0.02232687761544908	
;1535	0.007197056220858768	
;1536	0.02137398131099175	
;1537	0.014441063883880022	
;1538	0.01679198250551874	
;1539	0.016589128429629733	
;1540	0.006670690800816918	
;1541	0.009967869447411458	
;1542	0.018787414677837327	
;1543	0.017410742407632736	
;1544	0.02210150754878354	
;1545	0.012574884613512402	
;1546	0.015889674868006867	
;1547	0.02025792917071981	
;1548	0.015644321404292946	
;1549	0.01587305775266944	
;1550	0.01466848032657439	
;1551	0.020556258119148255	
;1552	0.022649192130695214	
;1553	0.010318043646103215	
;1554	0.013117060234207384	
;1555	0.02051531847781171	
;1556	0.011682172836656759	
;1557	0.01426341628063642	
;1558	0.02182869459703016	
;1559	0.021295559642955684	
;1560	0.015215808646801924	
;1561	0.0067307449155355505	
;1562	0.013588689179482999	
;1563	0.011566267450538787	
;1564	0.021625006253724353	
;1565	0.0068964334293562125	
;1566	0.01566506862715419	
;1567	0.01143645360562921	
;1568	0.012206541046723514	
;1569	0.017122312189822336	
;1570	0.021403437496460686	
;1571	0.014153158185694466	
;1572	0.022806980876247454	
;1573	0.0077294375555136945	
;1574	0.01713097991052656	
;1575	0.011258252115763008	
;1576	0.020498973835242695	
;1577	0.006896601676844421	
;1578	0.019751264489712494	
;1579	0.0067648439297256805	
;1580	0.022515463426201865	
;1581	0.01011546686795584	
;1582	0.017123301452035354	
;1583	0.019758571333930885	
;1584	0.015117743278690518	
;1585	0.01126783761394991	
;1586	0.022110161257928897	
;1587	0.018880335106302448	
;1588	0.008457538307870934	
;1589	0.016985289896604402	
;1590	0.007460575860325933	
;1591	0.007824193295553939	
;1592	0.007237977670587176	
;1593	0.013562492270685435	
;1594	0.02212113662156485	
;1595	0.019499738976597864	
;1596	0.016956638249429116	
;1597	0.014408525119327036	
;1598	0.011778394928217363	
;1599	0.012696486174791683	
;1600	0.013172318689114849	
;1601	0.014977541298273406	
;1602	0.0100822970144896	
;1603	0.017521802175167783	
;1604	0.01844256945482037	
;1605	0.02213643872274435	
;1606	0.010074016586102	
;1607	0.009634734011360871	
;1608	0.014828502029362972	
;1609	0.015622945243970243	
;1610	0.011717150824827913	
;1611	0.013239424271264044	
;1612	0.015858086055741127	
;1613	0.012827665850852526	
;1614	0.010051270430195413	
;1615	0.015308664452775551	
;1616	0.022872118662461565	
;1617	0.012178105569693317	
;1618	0.010758554420947797	
;1619	0.010461169726974076	
;1620	0.015390276666144303	
;1621	0.020787169300352914	
;1622	0.007673199064413604	
;1623	0.01676078780708714	
;1624	0.010786116647622227	
;1625	0.021654446663474776	
;1626	0.011535862147267891	
;1627	0.02124447548103797	
;1628	0.02023922395557855	
;1629	0.018646287720886178	
;1630	0.01011815106297835	
;1631	0.022894244890259922	
;1632	0.011660165320783527	
;1633	0.015778088240870663	
;1634	0.020144420346522515	
;1635	0.0068694909084406255	
;1636	0.017467658971781853	
;1637	0.011448781402257167	
;1638	0.015707906914991254	
;1639	0.019321859119852545	
;1640	0.022722957933316083	
;1641	0.020355976924157918	
;1642	0.02153675997592379	
;1643	0.02260136102661648	
;1644	0.006479339578778151	
;1645	0.020981243498459232	
;1646	0.012576689722740841	
;1647	0.013580632202759147	
;1648	0.016825074475155896	
;1649	0.009509484402994409	
;1650	0.02232372348646707	
;1651	0.01076066083774585	
;1652	0.01766990788533331	
;1653	0.009098211015327663	
;1654	0.01371137724302283	
;1655	0.008398763466407924	
;1656	0.021142987076168646	
;1657	0.014921744023522693	
;1658	0.01742386086099536	
;1659	0.02032145423663601	
;1660	0.012132046349838777	
;1661	0.019134460225724292	
;1662	0.019392071747202637	
;1663	0.01763415580333479	
;1664	0.020518846237425503	
;1665	0.016965364599284695	
;1666	0.020801228412072274	
;1667	0.010969971198497545	
;1668	0.011017996757078282	
;1669	0.010793145768531652	
;1670	0.02041612825353539	
;1671	0.012670573556821536	
;1672	0.01392591386788042	
;1673	0.010038241440989396	
;1674	0.006449203415155835	
;1675	0.007912911726894853	
;1676	0.022180186924504845	
;1677	0.008726249132515929	
;1678	0.01257746385663942	
;1679	0.012040859372733973	
;1680	0.02263650995185187	
;1681	0.017415702043624297	
;1682	0.018619085071300744	
;1683	0.020608446303468454	
;1684	0.016860166084126042	
;1685	0.020911381467827617	
;1686	0.017090938975620914	
;1687	0.011906949756014409	
;1688	0.02082031821341426	
;1689	0.011719381398104129	
;1690	0.022716597078881514	
;1691	0.016998696850457025	
;1692	0.007359447750442706	
;1693	0.012855946537826603	
;1694	0.011373003493041763	
;1695	0.008831187855911495	
;1696	0.020290815133412573	
;1697	0.019229523236005942	
;1698	0.007114032721373593	
;1699	0.008597037856019122	
;1700	0.011465704544100811	
;1701	0.015137968605161046	
;1702	0.013373721938459537	
;1703	0.006905011412231469	
;1704	0.006887920807120473	
;1705	0.010347588248690533	
;1706	0.020146425553173666	
;1707	0.007901888576369549	
;1708	0.01810074124758603	
;1709	0.01783565865382157	
;1710	0.01081314107445448	
;1711	0.02285477426234387	
;1712	0.008044474942176142	
;1713	0.01525050950625003	
;1714	0.013801968714754297	
;1715	0.018194764374226995	
;1716	0.009932910484057525	
;1717	0.012628139593927584	
;1718	0.019589405190363354	
;1719	0.02044914979843895	
;1720	0.022791989928863412	
;1721	0.017211475722075147	
;1722	0.011017040746563416	
;1723	0.007702490578719571	
;1724	0.018486954557138717	
;1725	0.014855394148933353	
;1726	0.011912721391150074	
;1727	0.00912724979608032	
;1728	0.013006159394896159	
;1729	0.008413314604630762	
;1730	0.006982763004190326	
;1731	0.021174323982123846	
;1732	0.006517263179897973	
;1733	0.0066152002939094175	
;1734	0.01338000303124347	
;1735	0.017126856390945147	
;1736	0.0075973127967695455	
;1737	0.017596271953538092	
;1738	0.007223477730373012	
;1739	0.020197426537976227	
;1740	0.007790912484089868	
;1741	0.00806018431421142	
;1742	0.014423818821944745	
;1743	0.01926512248667611	
;1744	0.008065200800952785	
;1745	0.010420446055695072	
;1746	0.010817751267207342	
;1747	0.0153143799032427	
;1748	0.012979346072936342	
;1749	0.009478454540455317	
;1750	0.01150088417548133	
;1751	0.015962537163769577	
;1752	0.010188364058151808	
;1753	0.0181259859684704	
;1754	0.006529367025268607	
;1755	0.02183601390562561	
;1756	0.01936031985410991	
;1757	0.008691464788034172	
;1758	0.010111302766635053	
;1759	0.008280348742052879	
;1760	0.012971832492107484	
;1761	0.01800372299205523	
;1762	0.01380153453214956	
;1763	0.022161805558533473	
;1764	0.008327453874057563	
;1765	0.011342339420879331	
;1766	0.008021838413862472	
;1767	0.018250028423990143	
;1768	0.021346986475063973	
;1769	0.014588479029950004	
;1770	0.009742557468011148	
;1771	0.011695678194308633	
;1772	0.016468880149482744	
;1773	0.01723103366212702	
;1774	0.02095349156189015	
;1775	0.008640226060921116	
;1776	0.014185157046924348	
;1777	0.013198325880963476	
;1778	0.01186285822394834	
;1779	0.011220093879497994	
;1780	0.011301117761179777	
;1781	0.012699712606367791	
;1782	0.01598854644306307	
;1783	0.022851518759561183	
;1784	0.01510022625988067	
;1785	0.01759645087959388	
;1786	0.019833989867377534	
;1787	0.009088176392938553	
;1788	0.018933520984938158	
;1789	0.017465183014537655	
;1790	0.012864208150108412	
;1791	0.007709686831467012	
;1792	0.019607423385157592	
;1793	0.021180780970641404	
;1794	0.01987748783520612	
;1795	0.020625725779285002	
;1796	0.017107247752418234	
;1797	0.01681889931938164	
;1798	0.014170829977795773	
;1799	0.013888859672273351	
;1800	0.011629195997908818	
;1801	0.011210887911377443	
;1802	0.011315116837900572	
;1803	0.012043774583378958	
;1804	0.020881507033499374	
;1805	0.007114050887459439	
;1806	0.022572508711647846	
;1807	0.014197834349949243	
;1808	0.014287795137386898	
;1809	0.021561671380217726	
;1810	0.007730266143062196	
;1811	0.020819757790140763	
;1812	0.0069595284104022525	
;1813	0.00972633333634143	
;1814	0.012844603706505801	
;1815	0.009842536343891591	
;1816	0.0075458131281563815	
;1817	0.017569124749581864	
;1818	0.007066559817289536	
;1819	0.009883222639583626	
;1820	0.019202481667697387	
;1821	0.016164397972839036	
;1822	0.007545522577363741	
;1823	0.011567195579318868	
;1824	0.017403042520323257	
;1825	0.02149110476807606	
;1826	0.008295128289558695	
;1827	0.014580534773874337	
;1828	0.015286951442678174	
;1829	0.02023643959693271	
;1830	0.01858744096738148	
;1831	0.010020795683155257	
;1832	0.01988573610658379	
;1833	0.012974927496946209	
;1834	0.019061187946568033	
;1835	0.02068427106103236	
;1836	0.008965646954641388	
;1837	0.021014134413027435	
;1838	0.019247921024731496	
;1839	0.01997193012028663	
;1840	0.02060476824908289	
;1841	0.018268691180772248	
;1842	0.012295580624250938	
;1843	0.011699103285353557	
;1844	0.020716274460410494	
;1845	0.014196394361797465	
;1846	0.013454876038391857	
;1847	0.02124366519950813	
;1848	0.008745172433672647	
;1849	0.017087820608431968	
;1850	0.0096901488322805	
;1851	0.014424128721336953	
;1852	0.01413471835345447	
;1853	0.01789456230614141	
;1854	0.016315053460415212	
;1855	0.008885027962243743	
;1856	0.011522576583970403	
;1857	0.008442882074292573	
;1858	0.011267925862144765	
;1859	0.013287907360993447	
;1860	0.012773571411576735	
;1861	0.017524582820137663	
;1862	0.011124935429770196	
;1863	0.018810958214437574	
;1864	0.011553394676463121	
;1865	0.012960584173689569	
;1866	0.01975063384439513	
;1867	0.02213620756528795	
;1868	0.016257092980311527	
;1869	0.013175828398106165	
;1870	0.02164722186702055	
;1871	0.00728918845487618	
;1872	0.00778774769189934	
;1873	0.021279118125683148	
;1874	0.01219398333416359	
;1875	0.016277773672085816	
;1876	0.018712456319657893	
;1877	0.020184462756930456	
;1878	0.012306958939569753	
;1879	0.009633780109419489	
;1880	0.019406439207267645	
;1881	0.010158805972865007	
;1882	0.006965727387451741	
;1883	0.009657898462492794	
;1884	0.022180374335569443	
;1885	0.02106932164834888	
;1886	0.02212495655945614	
;1887	0.01355718016208479	
;1888	0.02112023708581836	
;1889	0.007122810444903662	
;1890	0.01695161797835788	
;1891	0.019764432892959063	
;1892	0.015364943271943168	
;1893	0.006686581242271713	
;1894	0.007156630272844278	
;1895	0.017886874581589288	
;1896	0.02111749460719283	
;1897	0.006801967955965395	
;1898	0.011960769750628491	
;1899	0.009720845244902491	
;1900	0.015038906133564848	
;1901	0.015598664228369561	
;1902	0.017105527223779955	
;1903	0.006958452922435726	
;1904	0.01816762547526787	
;1905	0.009729835016651228	
;1906	0.007954362219503627	
;1907	0.022241920865417878	
;1908	0.007755868852443905	
;1909	0.017672053572254823	
;1910	0.013677858714348139	
;1911	0.008476803758261571	
;1912	0.011933341257830236	
;1913	0.008930125114224011	
;1914	0.022035249649800845	
;1915	0.008499425684622723	
;1916	0.01939103313516498	
;1917	0.021661948256099007	
;1918	0.017936398298318505	
;1919	0.008434113284880293	
;1920	0.02152550366144949	
;1921	0.0130392536907799	
;1922	0.007891490756639436	
;1923	0.017790523973086607	
;1924	0.007820585048030773	
;1925	0.012516829591655192	
;1926	0.019352551703785047	
;1927	0.016175816973360107	
;1928	0.009023494123493831	
;1929	0.011136014961997254	
;1930	0.014572452805506814	
;1931	0.020620150144899162	
;1932	0.013766729107216788	
;1933	0.020092919134743734	
;1934	0.012445787293446555	
;1935	0.00968678217827834	
;1936	0.014184470345630536	
;1937	0.011450759496828014	
;1938	0.014529021523604383	
;1939	0.01866428363530618	
;1940	0.008524217345504397	
;1941	0.018261386986726646	
;1942	0.01706824001725988	
;1943	0.015524708980762046	
;1944	0.010004142572786551	
;1945	0.021003466117599838	
;1946	0.022174620340154837	
;1947	0.02275510117900906	
;1948	0.018364726187632168	
;1949	0.012912633685722237	
;1950	0.011124216243684633	
;1951	0.009056483617195596	
;1952	0.016692394787400238	
;1953	0.01051422666551892	
;1954	0.011803761750524189	
;1955	0.022905763517980744	
;1956	0.013894254919507219	
;1957	0.009787004143228355	
;1958	0.0068212211792514806	
;1959	0.013521783653355383	
;1960	0.01820801713564965	
;1961	0.01176487359663243	
;1962	0.021007369212508082	
;1963	0.011803203914614391	
;1964	0.014425396152595507	
;1965	0.010687138283920062	
;1966	0.01298153133039565	
;1967	0.008761877003704576	
;1968	0.01603428465890817	
;1969	0.02289733018517325	
;1970	0.007725408834254966	
;1971	0.022555051681501296	
;1972	0.006724434232082131	
;1973	0.01584888287822616	
;1974	0.008855325168657844	
;1975	0.008093339804315574	
;1976	0.01573077979188656	
;1977	0.021490522793513146	
;1978	0.019756142275372028	
;1979	0.01675380218157944	
;1980	0.018674185080085327	
;1981	0.015149722881323973	
;1982	0.017112832749729013	
;1983	0.012462718309921947	
;1984	0.012570372819936353	
;1985	0.015819465626028865	
;1986	0.014225717325508319	
;1987	0.008878713704463916	
;1988	0.015574996599273095	
;1989	0.01844654729520368	
;1990	0.013694539790684308	
;1991	0.013096811248819217	
;1992	0.018996724346369096	
;1993	0.0074150565028327335	
;1994	0.011061945020781633	
;1995	0.022234217077401457	
;1996	0.018385590018745967	
;1997	0.013346834970290204	
;1998	0.014152212094769868	
;1999	0.020665031470303238	
;2000	0.010515402992439261	
;2001	0.01945933570491328	
;2002	0.01697074177748765	
;2003	0.016943902530888958	
;2004	0.013649693324655912	
;2005	0.019607387353144785	
;2006	0.010314294215956981	
;2007	0.013011818358921543	
;2008	0.015315551492634579	
;2009	0.008974992119474886	
;2010	0.014267129788698783	

[CONTROLS]
LINK P43 OPEN IF NODE T1 BELOW 120
LINK P43 CLOSED IF NODE T1 ABOVE 128

[END]