[TITLE]


[JUNCTIONS]
;ID              	Elev        	Demand      	Pattern         
 O-AV-1          	868.7000    	0.000000    	1               	;
 O-AV-10         	946.5000    	0.000000    	1               	;
 O-AV-100        	1110.8000   	0.000000    	1               	;
 O-AV-101        	1113.1000   	0.000000    	1               	;
 O-AV-102        	1195.4000   	0.000000    	1               	;
 O-AV-103        	1137.1000   	0.000000    	1               	;
 O-AV-104        	897.7000    	0.000000    	1               	;
 I-AV-105        	1210.3000   	0.000000    	1               	;
 O-AV-106        	1077.1000   	0.000000    	1               	;
 O-AV-107        	1289.3000   	0.000000    	1               	;
 O-AV-108        	1259.4000   	0.000000    	1               	;
 I-AV-109        	1142.8000   	0.000000    	1               	;
 O-AV-11         	712.9000    	0.000000    	1               	;
 I-AV-110        	1061.2000   	0.000000    	1               	;
 I-AV-111        	1377.2000   	0.000000    	1               	;
 I-AV-112        	1156.1000   	0.000000    	1               	;
 I-AV-113        	1269.9000   	0.000000    	1               	;
 I-AV-114        	1266.3000   	0.000000    	1               	;
 I-AV-115        	1329.3000   	0.000000    	1               	;
 I-AV-116        	1015.1000   	0.000000    	1               	;
 I-AV-117        	1409.5000   	0.000000    	1               	;
 O-AV-118        	1220.4000   	0.000000    	1               	;
 O-AV-119        	1318.5000   	0.000000    	1               	;
 O-AV-12         	906.5000    	0.000000    	1               	;
 I-AV-120        	1241.4000   	0.000000    	1               	;
 O-AV-121        	1247.8000   	0.000000    	1               	;
 I-AV-122        	1232.9000   	0.000000    	1               	;
 I-AV-123        	1180.6000   	0.000000    	1               	;
 I-AV-124        	1404.3000   	0.000000    	1               	;
 O-AV-125        	933.5000    	0.000000    	1               	;
 I-AV-126        	1179.1000   	0.000000    	1               	;
 I-AV-127        	1281.4000   	0.000000    	1               	;
 I-AV-128        	1125.1000   	0.000000    	1               	;
 O-AV-129        	820.6000    	0.000000    	1               	;
 O-AV-13         	831.9000    	0.000000    	1               	;
 O-AV-130        	834.6000    	0.000000    	1               	;
 I-AV-131        	884.9000    	0.000000    	1               	;
 I-AV-132        	782.8000    	0.000000    	1               	;
 O-AV-133        	1238.7000   	0.000000    	1               	;
 O-AV-134        	1285.9000   	0.000000    	1               	;
 O-AV-135        	1231.6000   	0.000000    	1               	;
 O-AV-136        	1182.4000   	0.000000    	1               	;
 I-AV-137        	1108.0000   	0.000000    	1               	;
 O-AV-138        	989.7000    	0.000000    	1               	;
 I-AV-139        	1110.9000   	0.000000    	1               	;
 O-AV-14         	765.9000    	0.000000    	1               	;
 O-AV-140        	1173.2000   	0.000000    	1               	;
 O-AV-141        	1251.1000   	0.000000    	1               	;
 O-AV-142        	1202.8000   	0.000000    	1               	;
 O-AV-143        	1427.4000   	0.000000    	1               	;
 O-AV-144        	1395.8000   	0.000000    	1               	;
 I-AV-145        	780.4000    	0.000000    	1               	;
 O-AV-146        	1199.1000   	0.000000    	1               	;
 O-AV-147        	1086.8000   	0.000000    	1               	;
 O-AV-148        	1370.5000   	0.000000    	1               	;
 O-AV-149        	1488.9000   	0.000000    	1               	;
 O-AV-15         	1086.7000   	0.000000    	1               	;
 I-AV-150        	1231.2000   	0.000000    	1               	;
 O-AV-151        	1091.7000   	0.000000    	1               	;
 O-AV-152        	1225.5000   	0.000000    	1               	;
 O-AV-153        	1229.0000   	0.000000    	1               	;
 I-AV-154        	1208.2000   	0.000000    	1               	;
 O-AV-155        	1081.3000   	0.000000    	1               	;
 O-AV-156        	806.2000    	0.000000    	1               	;
 O-AV-157        	1341.3000   	0.000000    	1               	;
 O-AV-158        	1142.4000   	0.000000    	1               	;
 I-AV-159        	1338.0000   	0.000000    	1               	;
 O-AV-16         	1089.6000   	0.000000    	1               	;
 I-AV-160        	1259.9000   	0.000000    	1               	;
 O-AV-161        	954.0000    	0.000000    	1               	;
 I-AV-162        	1133.2000   	0.000000    	1               	;
 I-AV-163        	1379.6000   	0.000000    	1               	;
 I-AV-164        	1265.4000   	0.000000    	1               	;
 I-AV-165        	1344.2000   	0.000000    	1               	;
 O-AV-166        	1102.9000   	0.000000    	1               	;
 O-AV-167        	1223.0000   	0.000000    	1               	;
 O-AV-168        	1090.6000   	0.000000    	1               	;
 O-AV-169        	1306.4000   	0.000000    	1               	;
 I-AV-17         	1012.7000   	0.000000    	1               	;
 O-AV-170        	1158.0000   	0.000000    	1               	;
 O-AV-171        	1238.9000   	0.000000    	1               	;
 O-AV-172        	1312.3000   	0.000000    	1               	;
 I-AV-173        	1056.4000   	0.000000    	1               	;
 O-AV-174        	1290.3000   	0.000000    	1               	;
 I-AV-175        	1250.2000   	0.000000    	1               	;
 O-AV-176        	1316.6000   	0.000000    	1               	;
 O-AV-177        	1311.3000   	0.000000    	1               	;
 O-AV-178        	1578.9000   	0.000000    	1               	;
 I-AV-179        	1148.9000   	0.000000    	1               	;
 O-AV-18         	973.5000    	0.000000    	1               	;
 O-AV-180        	1145.1000   	0.000000    	1               	;
 O-AV-181        	1127.9000   	0.000000    	1               	;
 I-AV-182        	784.0000    	0.000000    	1               	;
 I-AV-183        	1070.4000   	0.000000    	1               	;
 I-AV-184        	1095.6000   	0.000000    	1               	;
 I-AV-185        	1116.6000   	0.000000    	1               	;
 I-AV-186        	967.1000    	0.000000    	1               	;
 I-AV-187        	996.4000    	0.000000    	1               	;
 I-AV-188        	1207.6000   	0.000000    	1               	;
 O-AV-189        	1086.7000   	0.000000    	1               	;
 I-AV-19         	1082.0000   	0.000000    	1               	;
 I-AV-190        	1140.0000   	0.000000    	1               	;
 I-AV-191        	985.8000    	0.000000    	1               	;
 O-AV-192        	1037.2000   	0.000000    	1               	;
 I-AV-193        	922.5000    	0.000000    	1               	;
 I-AV-194        	1093.8000   	0.000000    	1               	;
 I-AV-195        	970.1000    	0.000000    	1               	;
 O-AV-196        	950.2000    	0.000000    	1               	;
 I-AV-197        	932.7000    	0.000000    	1               	;
 O-AV-198        	1035.5000   	0.000000    	1               	;
 I-AV-199        	837.3000    	0.000000    	1               	;
 O-AV-2          	1227.2000   	0.000000    	1               	;
 I-AV-20         	1275.4000   	0.000000    	1               	;
 O-AV-200        	796.9000    	0.000000    	1               	;
 O-AV-201        	1174.8000   	0.000000    	1               	;
 O-AV-202        	945.1000    	0.000000    	1               	;
 I-AV-203        	1075.3000   	0.000000    	1               	;
 I-AV-204        	980.5000    	0.000000    	1               	;
 I-AV-21         	924.5000    	0.000000    	1               	;
 I-AV-22         	1124.9000   	0.000000    	1               	;
 I-AV-23         	745.9000    	0.000000    	1               	;
 I-AV-24         	1080.2000   	0.000000    	1               	;
 I-AV-25         	997.2000    	0.000000    	1               	;
 I-AV-26         	1126.3000   	0.000000    	1               	;
 I-AV-27         	1160.0000   	0.000000    	1               	;
 I-AV-28         	1186.8000   	0.000000    	1               	;
 I-AV-29         	913.5000    	0.000000    	1               	;
 I-AV-3          	1042.7000   	0.000000    	1               	;
 I-AV-30         	1330.3000   	0.000000    	1               	;
 I-AV-31         	1216.0000   	0.000000    	1               	;
 I-AV-32         	1188.4000   	0.000000    	1               	;
 I-AV-33         	976.8000    	0.000000    	1               	;
 I-AV-34         	782.0000    	0.000000    	1               	;
 I-AV-35         	970.2000    	0.000000    	1               	;
 O-AV-36         	1137.0000   	0.000000    	1               	;
 I-AV-37         	1164.8000   	0.000000    	1               	;
 O-AV-38         	1060.3000   	0.000000    	1               	;
 I-AV-39         	1244.1000   	0.000000    	1               	;
 O-AV-4          	837.1000    	0.000000    	1               	;
 I-AV-40         	1253.0000   	0.000000    	1               	;
 O-AV-41         	831.9000    	0.000000    	1               	;
 O-AV-42         	1245.4000   	0.000000    	1               	;
 O-AV-43         	1206.6000   	0.000000    	1               	;
 O-AV-44         	912.0000    	0.000000    	1               	;
 I-AV-45         	1085.5000   	0.000000    	1               	;
 I-AV-46         	1086.6000   	0.000000    	1               	;
 O-AV-47         	1069.0000   	0.000000    	1               	;
 O-AV-48         	887.2000    	0.000000    	1               	;
 O-AV-49         	1207.9000   	0.000000    	1               	;
 I-AV-5          	1102.8000   	0.000000    	1               	;
 O-AV-50         	1162.1000   	0.000000    	1               	;
 I-AV-51         	1376.2000   	0.000000    	1               	;
 I-AV-52         	1396.0000   	0.000000    	1               	;
 I-AV-53         	1341.9000   	0.000000    	1               	;
 O-AV-54         	1238.9000   	0.000000    	1               	;
 O-AV-55         	1275.5000   	0.000000    	1               	;
 O-AV-56         	1328.7000   	0.000000    	1               	;
 I-AV-57         	1358.0000   	0.000000    	1               	;
 O-AV-58         	1200.3000   	0.000000    	1               	;
 O-AV-59         	1259.2000   	0.000000    	1               	;
 I-AV-6          	1133.0000   	0.000000    	1               	;
 I-AV-60         	1329.3000   	0.000000    	1               	;
 O-AV-61         	1062.3000   	0.000000    	1               	;
 O-AV-62         	1028.3000   	0.000000    	1               	;
 I-AV-63         	1170.7000   	0.000000    	1               	;
 I-AV-64         	0.0000      	0.000000    	1               	;
 I-AV-65         	0.0000      	0.000000    	1               	;
 I-AV-66         	0.0000      	0.000000    	1               	;
 I-AV-67         	0.0000      	0.000000    	1               	;
 O-AV-68         	0.0000      	0.000000    	1               	;
 O-AV-69         	1142.6000   	0.000000    	1               	;
 I-AV-7          	828.2000    	0.000000    	1               	;
 O-AV-70         	0.0000      	0.000000    	1               	;
 I-AV-71         	0.0000      	0.000000    	1               	;
 O-AV-72         	0.0000      	0.000000    	1               	;
 I-AV-73         	0.0000      	0.000000    	1               	;
 I-AV-74         	1159.1000   	0.000000    	1               	;
 O-AV-75         	1253.4000   	0.000000    	1               	;
 O-AV-76         	849.4000    	0.000000    	1               	;
 I-AV-77         	957.5000    	0.000000    	1               	;
 I-AV-78         	905.8000    	0.000000    	1               	;
 O-AV-79         	1350.7000   	0.000000    	1               	;
 I-AV-8          	1023.6000   	0.000000    	1               	;
 I-AV-80         	1199.4000   	0.000000    	1               	;
 I-AV-81         	886.0000    	0.000000    	1               	;
 I-AV-82         	1049.9000   	0.000000    	1               	;
 I-AV-83         	1521.0000   	0.000000    	1               	;
 I-AV-84         	1435.9000   	0.000000    	1               	;
 O-AV-85         	1024.7000   	0.000000    	1               	;
 I-AV-86         	1330.9000   	0.000000    	1               	;
 I-AV-87         	1088.6000   	0.000000    	1               	;
 O-AV-88         	1222.0000   	0.000000    	1               	;
 I-AV-89         	1404.8000   	0.000000    	1               	;
 I-AV-9          	1162.2000   	0.000000    	1               	;
 O-AV-90         	805.3000    	0.000000    	1               	;
 O-AV-91         	1097.0000   	0.000000    	1               	;
 O-AV-92         	1017.9000   	0.000000    	1               	;
 O-AV-93         	828.9000    	0.000000    	1               	;
 I-AV-94         	1061.7000   	0.000000    	1               	;
 I-AV-95         	868.1000    	0.000000    	1               	;
 I-AV-96         	988.0000    	0.000000    	1               	;
 I-AV-97         	900.3000    	0.000000    	1               	;
 O-AV-98         	1435.2000   	0.000000    	1               	;
 I-AV-99         	1196.4000   	0.000000    	1               	;
 I-Big_Branch_1  	987.4000    	0.000000    	1               	;
 I-Big_Branch_2  	1236.9000   	0.000000    	1               	;
 O-Bowens_Creek  	980.6000    	0.000000    	1               	;
 I-Bowling_Br    	968.2000    	0.000000    	1               	;
 I-Essie         	1260.4000   	0.000000    	1               	;
 O-Flackey_Branch	1277.0000   	0.000000    	1               	;
 I-Glady_Branch  	1066.0000   	0.000000    	1               	;
 O-High_Service  	1083.0000   	0.000000    	1               	;
 I-Honey_Suckle  	993.1000    	0.000000    	1               	;
 I-Hospital_Hilla	1174.8000   	0.000000    	1               	;
 O-Hurts_Creeka  	1274.5000   	0.000000    	1               	;
 I-Hyden_Spura   	832.4000    	0.000000    	1               	;
 J-1             	724.4000    	3.800000    	1               	;
 J-10            	1261.6000   	2.800000    	1               	;
 J-100           	1109.9000   	0.300000    	1               	;
 J-101           	1183.1000   	1.100000    	1               	;
 J-102           	1105.7000   	2.000000    	1               	;
 J-103           	1235.4000   	4.300000    	1               	;
 J-104           	1223.7000   	0.300000    	1               	;
 J-105           	1127.9000   	0.200000    	1               	;
 J-106           	1170.8000   	2.000000    	1               	;
 J-107           	1173.5000   	1.200000    	1               	;
 J-108           	921.5000    	2.000000    	1               	;
 J-109           	784.8000    	0.800000    	1               	;
 J-11            	966.7000    	8.000000    	1               	;
 J-110           	1225.3000   	0.500000    	1               	;
 J-111           	1223.7000   	1.500000    	1               	;
 J-112           	1354.6000   	10.400000   	1               	;
 J-113           	1019.1000   	1.800000    	1               	;
 J-114           	1088.2000   	9.200000    	1               	;
 J-115           	1225.4000   	0.400000    	1               	;
 J-116           	1195.5000   	5.400000    	1               	;
 J-117           	1180.0000   	0.400000    	1               	;
 J-118           	989.2000    	3.200000    	1               	;
 J-119           	1220.3000   	3.400000    	1               	;
 J-12            	946.6000    	0.900000    	1               	;
 J-120           	1109.4000   	2.300000    	1               	;
 J-121           	1250.3000   	3.100000    	1               	;
 J-122           	1118.7000   	1.800000    	1               	;
 J-123           	1017.5000   	0.600000    	1               	;
 J-124           	894.6000    	1.000000    	1               	;
 J-125           	1013.2000   	1.400000    	1               	;
 J-126           	1171.9000   	2.200000    	1               	;
 J-127           	968.9000    	0.400000    	1               	;
 J-128           	1032.5000   	0.300000    	1               	;
 J-129           	1227.9000   	0.200000    	1               	;
 J-13            	846.3000    	8.300000    	1               	;
 J-130           	1125.4000   	0.400000    	1               	;
 J-131           	912.5000    	1.500000    	1               	;
 J-132           	1248.7000   	0.600000    	1               	;
 J-133           	1122.3000   	0.000000    	1               	;
 J-134           	1016.6000   	0.800000    	1               	;
 J-135           	989.1000    	1.300000    	1               	;
 J-136           	1280.9000   	0.100000    	1               	;
 J-137           	1218.8000   	0.400000    	1               	;
 J-138           	1334.4000   	2.000000    	1               	;
 J-139           	1103.3000   	0.300000    	1               	;
 J-14            	869.6000    	1.100000    	1               	;
 J-140           	1260.6000   	0.100000    	1               	;
 J-141           	1262.2000   	1.900000    	1               	;
 J-142           	1227.8000   	6.800000    	1               	;
 J-143           	618.0000    	4.600000    	1               	;
 J-144           	595.0000    	4.500000    	1               	;
 J-145           	627.6000    	3.400000    	1               	;
 J-146           	963.1000    	3.200000    	1               	;
 J-147           	950.0000    	0.700000    	1               	;
 J-148           	1080.0000   	0.900000    	1               	;
 J-149           	1486.7000   	1.400000    	1               	;
 J-15            	700.0000    	6.600000    	1               	;
 J-150           	1330.8000   	1.300000    	1               	;
 J-151           	961.0000    	2.500000    	1               	;
 J-152           	1103.4000   	1.100000    	1               	;
 J-153           	1239.0000   	0.300000    	1               	;
 J-154           	978.7000    	4.900000    	1               	;
 J-155           	1176.8000   	0.400000    	1               	;
 J-156           	1028.3000   	1.500000    	1               	;
 J-157           	1251.7000   	1.000000    	1               	;
 J-158           	963.7000    	1.800000    	1               	;
 J-159           	1105.3000   	0.500000    	1               	;
 J-16            	669.9000    	3.200000    	1               	;
 J-160           	828.9000    	4.900000    	1               	;
 J-162           	1300.1000   	2.000000    	1               	;
 J-163           	1285.6000   	1.200000    	1               	;
 J-164           	1015.3000   	0.200000    	1               	;
 J-165           	1246.5000   	0.800000    	1               	;
 J-166           	1266.7000   	0.100000    	1               	;
 J-167           	1257.8000   	0.700000    	1               	;
 J-168           	1144.9000   	2.700000    	1               	;
 J-169           	1229.0000   	0.900000    	1               	;
 J-17            	703.6000    	1.100000    	1               	;
 J-170           	1077.6000   	1.400000    	1               	;
 J-171           	1225.7000   	1.300000    	1               	;
 J-172           	1049.9000   	3.300000    	1               	;
 J-173           	1167.5000   	1.300000    	1               	;
 J-174           	1016.1000   	1.300000    	1               	;
 J-175           	1270.6000   	1.400000    	1               	;
 J-176           	996.2000    	0.000000    	1               	;
 J-177           	851.0000    	1.400000    	1               	;
 J-178           	968.5000    	0.100000    	1               	;
 J-179           	1009.6000   	1.600000    	1               	;
 J-18            	688.8000    	1.100000    	1               	;
 J-180           	789.5000    	3.800000    	1               	;
 J-181           	1087.1000   	3.000000    	1               	;
 J-182           	1476.2000   	14.000000   	1               	;
 J-183           	1230.8000   	0.900000    	1               	;
 J-184           	690.8000    	1.500000    	1               	;
 J-185           	904.7000    	2.900000    	1               	;
 J-186           	1260.7000   	0.800000    	1               	;
 J-187           	763.2000    	0.300000    	1               	;
 J-189           	1231.9000   	1.400000    	1               	;
 J-19            	670.1000    	3.300000    	1               	;
 J-191           	950.0000    	0.800000    	1               	;
 J-192           	940.0000    	0.500000    	1               	;
 J-193           	1262.9000   	2.600000    	1               	;
 J-194           	830.6000    	5.200000    	1               	;
 J-195           	1032.5000   	3.900000    	1               	;
 J-196           	1123.2000   	1.700000    	1               	;
 J-197           	872.2000    	11.200000   	1               	;
 J-198           	857.1000    	1.000000    	1               	;
 J-199           	796.6000    	1.000000    	1               	;
 J-2             	906.5000    	0.800000    	1               	;
 J-20            	712.4000    	1.500000    	1               	;
 J-200           	870.4000    	10.000000   	1               	;
 J-201           	855.0000    	2.200000    	1               	;
 J-202           	1177.9000   	3.500000    	1               	;
 J-203           	835.8000    	7.800000    	1               	;
 J-204           	1130.3000   	0.800000    	1               	;
 J-205           	1182.6000   	0.300000    	1               	;
 J-206           	839.8000    	6.600000    	1               	;
 J-207           	1244.8000   	1.100000    	1               	;
 J-208           	1001.7000   	1.800000    	1               	;
 J-209           	1164.0000   	0.700000    	1               	;
 J-21            	1109.9000   	1.400000    	1               	;
 J-210           	1273.9000   	5.100000    	1               	;
 J-212           	1198.3000   	0.000000    	1               	;
 J-213           	896.7000    	0.400000    	1               	;
 J-214           	904.6000    	0.200000    	1               	;
 J-215           	630.0000    	11.500000   	1               	;
 J-216           	965.9000    	1.800000    	1               	;
 J-217           	896.0000    	0.600000    	1               	;
 J-218           	918.8000    	3.200000    	1               	;
 J-219           	962.6000    	3.000000    	1               	;
 J-22            	1192.1000   	2.100000    	1               	;
 J-220           	883.7000    	0.000000    	1               	;
 J-221           	826.0000    	0.400000    	1               	;
 J-222           	1255.7000   	0.600000    	1               	;
 J-223           	704.7000    	11.400000   	1               	;
 J-224           	1099.8000   	0.400000    	1               	;
 J-225           	1194.0000   	2.300000    	1               	;
 J-226           	1182.1000   	1.800000    	1               	;
 J-227           	1212.7000   	1.900000    	1               	;
 J-228           	1046.1000   	1.500000    	1               	;
 J-229           	898.6000    	1.600000    	1               	;
 J-23            	874.0000    	5.300000    	1               	;
 J-230           	959.8000    	0.800000    	1               	;
 J-231           	943.0000    	1.200000    	1               	;
 J-232           	859.8000    	2.500000    	1               	;
 J-233           	956.8000    	2.900000    	1               	;
 J-234           	1235.1000   	3.200000    	1               	;
 J-235           	1201.6000   	5.900000    	1               	;
 J-236           	1295.9000   	3.100000    	1               	;
 J-237           	1204.3000   	1.200000    	1               	;
 J-238           	1048.1000   	0.800000    	1               	;
 J-239           	913.2000    	6.500000    	1               	;
 J-24            	840.1000    	0.500000    	1               	;
 J-240           	891.0000    	0.300000    	1               	;
 J-241           	1101.0000   	5.000000    	1               	;
 J-242           	1173.9000   	0.800000    	1               	;
 J-243           	1302.6000   	0.700000    	1               	;
 J-244           	1251.0000   	2.900000    	1               	;
 J-245           	1170.0000   	0.800000    	1               	;
 J-246           	1042.8000   	2.000000    	1               	;
 J-247           	1147.4000   	1.800000    	1               	;
 J-248           	950.1000    	8.200000    	1               	;
 J-249           	847.9000    	6.000000    	1               	;
 J-25            	887.7000    	0.500000    	1               	;
 J-250           	884.8000    	0.200000    	1               	;
 J-251           	802.0000    	11.700000   	1               	;
 J-252           	1217.0000   	0.400000    	1               	;
 J-253           	949.3000    	0.700000    	1               	;
 J-254           	1143.1000   	0.400000    	1               	;
 J-255           	743.6000    	10.300000   	1               	;
 J-256           	767.7000    	0.200000    	1               	;
 J-257           	763.1000    	0.900000    	1               	;
 J-258           	735.7000    	0.900000    	1               	;
 J-259           	681.7000    	1.800000    	1               	;
 J-26            	1145.6000   	0.200000    	1               	;
 J-260           	1206.1000   	0.500000    	1               	;
 J-261           	1067.1000   	0.100000    	1               	;
 J-262           	1002.2000   	2.400000    	1               	;
 J-263           	895.5000    	3.100000    	1               	;
 J-265           	1096.8000   	2.500000    	1               	;
 J-266           	898.7000    	1.000000    	1               	;
 J-267           	1178.9000   	0.300000    	1               	;
 J-268           	1010.7000   	1.300000    	1               	;
 J-27            	1147.0000   	4.800000    	1               	;
 J-270           	1221.5000   	0.700000    	1               	;
 J-271           	1113.2000   	0.500000    	1               	;
 J-272           	1028.0000   	4.800000    	1               	;
 J-273           	1117.3000   	0.300000    	1               	;
 J-274           	1003.1000   	0.200000    	1               	;
 J-275           	1359.1000   	1.600000    	1               	;
 J-276           	986.8000    	1.100000    	1               	;
 J-277           	1014.6000   	0.400000    	1               	;
 J-278           	1041.0000   	3.200000    	1               	;
 J-279           	1148.9000   	3.000000    	1               	;
 J-28            	1149.5000   	3.700000    	1               	;
 J-280           	1227.1000   	0.500000    	1               	;
 J-281           	1066.1000   	1.700000    	1               	;
 J-282           	1109.0000   	2.000000    	1               	;
 J-283           	1219.4000   	0.500000    	1               	;
 J-284           	1182.8000   	0.600000    	1               	;
 J-285           	1106.1000   	0.100000    	1               	;
 J-286           	1204.7000   	2.500000    	1               	;
 J-287           	662.2000    	1.100000    	1               	;
 J-288           	907.4000    	0.600000    	1               	;
 J-289           	748.7000    	1.000000    	1               	;
 J-29            	1098.8000   	15.600000   	1               	;
 J-290           	1122.0000   	6.200000    	1               	;
 J-291           	992.0000    	1.400000    	1               	;
 J-292           	988.6000    	8.500000    	1               	;
 J-293           	1185.9000   	3.400000    	1               	;
 J-294           	1015.8000   	9.200000    	1               	;
 J-295           	1167.8000   	1.400000    	1               	;
 J-296           	1013.8000   	5.900000    	1               	;
 J-297           	952.4000    	0.600000    	1               	;
 J-298           	1177.7000   	4.100000    	1               	;
 J-299           	1152.7000   	2.700000    	1               	;
 J-3             	903.2000    	9.800000    	1               	;
 J-30            	1111.2000   	5.900000    	1               	;
 J-300           	1038.1000   	0.500000    	1               	;
 J-301           	1152.6000   	0.500000    	1               	;
 J-302           	1395.6000   	11.500000   	1               	;
 J-303           	1156.2000   	11.300000   	1               	;
 J-304           	831.0000    	3.200000    	1               	;
 J-305           	1007.7000   	0.100000    	1               	;
 J-306           	1034.0000   	0.300000    	1               	;
 J-307           	917.5000    	2.000000    	1               	;
 J-308           	1274.7000   	0.100000    	1               	;
 J-309           	944.8000    	0.600000    	1               	;
 J-31            	922.7000    	3.100000    	1               	;
 J-310           	1011.5000   	1.800000    	1               	;
 J-311           	1001.3000   	4.800000    	1               	;
 J-312           	1049.6000   	1.000000    	1               	;
 J-313           	1201.4000   	0.700000    	1               	;
 J-314           	970.9000    	3.900000    	1               	;
 J-315           	1064.1000   	0.600000    	1               	;
 J-316           	786.1000    	0.600000    	1               	;
 J-317           	1211.2000   	1.000000    	1               	;
 J-318           	1313.6000   	2.900000    	1               	;
 J-319           	725.3000    	4.300000    	1               	;
 J-32            	827.9000    	2.400000    	1               	;
 J-320           	700.0000    	1.500000    	1               	;
 J-321           	1200.8000   	0.500000    	1               	;
 J-322           	1035.5000   	0.200000    	1               	;
 J-323           	966.8000    	2.300000    	1               	;
 J-324           	707.5000    	1.000000    	1               	;
 J-325           	650.0000    	11.900000   	1               	;
 J-326           	1087.3000   	0.000000    	1               	;
 J-327           	1125.0000   	0.000000    	1               	;
 J-328           	1107.9000   	0.000000    	1               	;
 J-329           	1270.4000   	0.800000    	1               	;
 J-33            	1031.6000   	0.300000    	1               	;
 J-330           	1114.5000   	0.600000    	1               	;
 J-331           	1198.0000   	0.800000    	1               	;
 J-332           	1118.7000   	0.200000    	1               	;
 J-333           	950.0000    	4.400000    	1               	;
 J-334           	1042.3000   	3.400000    	1               	;
 J-335           	1249.7000   	3.200000    	1               	;
 J-336           	1189.6000   	2.000000    	1               	;
 J-337           	861.2000    	5.900000    	1               	;
 J-338           	1070.1000   	7.600000    	1               	;
 J-339           	1167.0000   	3.300000    	1               	;
 J-34            	1119.9000   	0.300000    	1               	;
 J-340           	1121.8000   	3.300000    	1               	;
 J-341           	853.2000    	2.300000    	1               	;
 J-343           	1204.0000   	0.600000    	1               	;
 J-344           	1196.0000   	0.600000    	1               	;
 J-345           	1201.5000   	0.900000    	1               	;
 J-347           	965.7000    	2.100000    	1               	;
 J-35            	1147.3000   	1.600000    	1               	;
 J-36            	1116.8000   	2.600000    	1               	;
 J-37            	1067.1000   	1.700000    	1               	;
 J-38            	631.9000    	1.400000    	1               	;
 J-39            	696.5000    	5.000000    	1               	;
 J-4             	940.7000    	2.000000    	1               	;
 J-40            	1141.5000   	2.200000    	1               	;
 J-41            	1163.1000   	1.900000    	1               	;
 J-42            	1033.0000   	3.100000    	1               	;
 J-43            	748.2000    	1.000000    	1               	;
 J-44            	1259.0000   	2.500000    	1               	;
 J-45            	1077.2000   	4.300000    	1               	;
 J-46            	1027.4000   	0.900000    	1               	;
 J-47            	891.4000    	0.200000    	1               	;
 J-48            	894.3000    	2.000000    	1               	;
 J-49            	1034.7000   	3.900000    	1               	;
 J-5             	973.4000    	10.500000   	1               	;
 J-50            	875.0000    	9.700000    	1               	;
 J-51            	947.7000    	2.100000    	1               	;
 J-52            	1225.4000   	1.800000    	1               	;
 J-53            	1147.2000   	1.500000    	1               	;
 J-54            	1176.3000   	1.400000    	1               	;
 J-55            	1118.2000   	1.100000    	1               	;
 J-56            	977.4000    	1.000000    	1               	;
 J-57            	964.9000    	0.300000    	1               	;
 J-58            	1004.4000   	0.400000    	1               	;
 J-59            	1120.0000   	0.500000    	1               	;
 J-6             	888.7000    	1.700000    	1               	;
 J-60            	863.8000    	0.600000    	1               	;
 J-61            	1040.9000   	0.200000    	1               	;
 J-62            	1155.2000   	1.700000    	1               	;
 J-63            	1172.2000   	0.600000    	1               	;
 J-64            	951.5000    	4.500000    	1               	;
 J-65            	1160.7000   	1.300000    	1               	;
 J-66            	1060.2000   	2.600000    	1               	;
 J-67            	950.0000    	1.800000    	1               	;
 J-68            	934.0000    	1.500000    	1               	;
 J-69            	1119.8000   	0.400000    	1               	;
 J-7             	1166.7000   	1.000000    	1               	;
 J-70            	1047.9000   	0.900000    	1               	;
 J-71            	980.6000    	3.600000    	1               	;
 J-72            	999.3000    	2.800000    	1               	;
 J-73            	1035.0000   	3.100000    	1               	;
 J-74            	1014.0000   	1.000000    	1               	;
 J-75            	1288.8000   	1.200000    	1               	;
 J-76            	1296.2000   	4.200000    	1               	;
 J-77            	1012.0000   	1.600000    	1               	;
 J-78            	1010.0000   	0.400000    	1               	;
 J-79            	947.5000    	8.600000    	1               	;
 J-8             	1107.5000   	0.200000    	1               	;
 J-80            	1155.4000   	2.300000    	1               	;
 J-81            	1135.7000   	4.400000    	1               	;
 J-82            	1193.7000   	2.000000    	1               	;
 J-83            	1126.6000   	7.200000    	1               	;
 J-84            	950.0000    	2.500000    	1               	;
 J-85            	1121.8000   	3.600000    	1               	;
 J-86            	1149.5000   	3.800000    	1               	;
 J-87            	892.9000    	0.200000    	1               	;
 J-88            	1172.6000   	3.300000    	1               	;
 J-89            	814.1000    	0.600000    	1               	;
 J-9             	1068.0000   	4.100000    	1               	;
 J-90            	1009.4000   	2.500000    	1               	;
 J-91            	1036.2000   	2.800000    	1               	;
 J-92            	859.1000    	0.300000    	1               	;
 J-93            	1092.8000   	0.200000    	1               	;
 J-94            	1180.6000   	0.100000    	1               	;
 J-95            	1109.5000   	0.800000    	1               	;
 J-96            	1204.8000   	0.300000    	1               	;
 J-97            	1130.2000   	1.400000    	1               	;
 J-98            	1203.9000   	1.000000    	1               	;
 J-99            	1107.8000   	1.100000    	1               	;
 O-Lower_Bad_Creek	937.0000    	0.000000    	1               	;
 I-Muncy_Creeka  	1024.9000   	0.000000    	1               	;
 O-Owls_Nesta    	1112.1000   	0.000000    	1               	;
 O-Polls_Creek_1 	1118.5000   	0.000000    	1               	;
 O-Polls_Creek_2 	1162.8000   	0.000000    	1               	;
 I-Rockhousea    	1273.8000   	0.000000    	1               	;
 I-Wilder_Branch 	1032.2000   	0.000000    	1               	;
 I-Wolfe_Creeka  	1265.5000   	0.000000    	1               	;
 O-Wooton_Mountain	1250.0000   	0.000000    	1               	;
 I-AV-1          	868.7000    	0.000000    	1               	;
 I-AV-10         	946.5000    	0.000000    	1               	;
 I-AV-100        	1110.8000   	0.000000    	1               	;
 I-AV-101        	1113.1000   	0.000000    	1               	;
 I-AV-102        	1195.4000   	0.000000    	1               	;
 I-AV-103        	1137.1000   	0.000000    	1               	;
 I-AV-104        	897.7000    	0.000000    	1               	;
 O-AV-105        	1210.3000   	0.000000    	1               	;
 I-AV-106        	1077.1000   	0.000000    	1               	;
 I-AV-107        	1289.3000   	0.000000    	1               	;
 I-AV-108        	1259.4000   	0.000000    	1               	;
 O-AV-109        	1142.8000   	0.000000    	1               	;
 I-AV-11         	712.9000    	0.000000    	1               	;
 O-AV-110        	1061.2000   	0.000000    	1               	;
 O-AV-111        	1377.2000   	0.000000    	1               	;
 O-AV-112        	1156.1000   	0.000000    	1               	;
 O-AV-113        	1269.9000   	0.000000    	1               	;
 O-AV-114        	1266.3000   	0.000000    	1               	;
 O-AV-115        	1329.3000   	0.000000    	1               	;
 O-AV-116        	1015.1000   	0.000000    	1               	;
 O-AV-117        	1409.5000   	0.000000    	1               	;
 I-AV-118        	1220.4000   	0.000000    	1               	;
 I-AV-119        	1318.5000   	0.000000    	1               	;
 I-AV-12         	906.5000    	0.000000    	1               	;
 O-AV-120        	1241.4000   	0.000000    	1               	;
 I-AV-121        	1247.8000   	0.000000    	1               	;
 O-AV-122        	1232.9000   	0.000000    	1               	;
 O-AV-123        	1180.6000   	0.000000    	1               	;
 O-AV-124        	1404.3000   	0.000000    	1               	;
 I-AV-125        	933.5000    	0.000000    	1               	;
 O-AV-126        	1179.1000   	0.000000    	1               	;
 O-AV-127        	1281.4000   	0.000000    	1               	;
 O-AV-128        	1125.1000   	0.000000    	1               	;
 I-AV-129        	820.6000    	0.000000    	1               	;
 I-AV-13         	831.9000    	0.000000    	1               	;
 I-AV-130        	834.6000    	0.000000    	1               	;
 O-AV-131        	884.9000    	0.000000    	1               	;
 O-AV-132        	782.8000    	0.000000    	1               	;
 I-AV-133        	1238.7000   	0.000000    	1               	;
 I-AV-134        	1285.9000   	0.000000    	1               	;
 I-AV-135        	1231.6000   	0.000000    	1               	;
 I-AV-136        	1182.4000   	0.000000    	1               	;
 O-AV-137        	1108.0000   	0.000000    	1               	;
 I-AV-138        	989.7000    	0.000000    	1               	;
 O-AV-139        	1110.9000   	0.000000    	1               	;
 I-AV-14         	765.9000    	0.000000    	1               	;
 I-AV-140        	1173.2000   	0.000000    	1               	;
 I-AV-141        	1251.1000   	0.000000    	1               	;
 I-AV-142        	1202.8000   	0.000000    	1               	;
 I-AV-143        	1427.4000   	0.000000    	1               	;
 I-AV-144        	1395.8000   	0.000000    	1               	;
 O-AV-145        	780.4000    	0.000000    	1               	;
 I-AV-146        	1199.1000   	0.000000    	1               	;
 I-AV-147        	1086.8000   	0.000000    	1               	;
 I-AV-148        	1370.5000   	0.000000    	1               	;
 I-AV-149        	1488.9000   	0.000000    	1               	;
 I-AV-15         	1086.7000   	0.000000    	1               	;
 O-AV-150        	1231.2000   	0.000000    	1               	;
 I-AV-151        	1091.7000   	0.000000    	1               	;
 I-AV-152        	1225.5000   	0.000000    	1               	;
 I-AV-153        	1229.0000   	0.000000    	1               	;
 O-AV-154        	1208.2000   	0.000000    	1               	;
 I-AV-155        	1081.3000   	0.000000    	1               	;
 I-AV-156        	806.2000    	0.000000    	1               	;
 I-AV-157        	1341.3000   	0.000000    	1               	;
 I-AV-158        	1142.4000   	0.000000    	1               	;
 O-AV-159        	1338.0000   	0.000000    	1               	;
 I-AV-16         	1089.6000   	0.000000    	1               	;
 O-AV-160        	1259.9000   	0.000000    	1               	;
 I-AV-161        	954.0000    	0.000000    	1               	;
 O-AV-162        	1133.2000   	0.000000    	1               	;
 O-AV-163        	1379.6000   	0.000000    	1               	;
 O-AV-164        	1265.4000   	0.000000    	1               	;
 O-AV-165        	1344.2000   	0.000000    	1               	;
 I-AV-166        	1102.9000   	0.000000    	1               	;
 I-AV-167        	1223.0000   	0.000000    	1               	;
 I-AV-168        	1090.6000   	0.000000    	1               	;
 I-AV-169        	1306.4000   	0.000000    	1               	;
 O-AV-17         	1012.7000   	0.000000    	1               	;
 I-AV-170        	1158.0000   	0.000000    	1               	;
 I-AV-171        	1238.9000   	0.000000    	1               	;
 I-AV-172        	1312.3000   	0.000000    	1               	;
 O-AV-173        	1056.4000   	0.000000    	1               	;
 I-AV-174        	1290.3000   	0.000000    	1               	;
 O-AV-175        	1250.2000   	0.000000    	1               	;
 I-AV-176        	1316.6000   	0.000000    	1               	;
 I-AV-177        	1311.3000   	0.000000    	1               	;
 I-AV-178        	1578.9000   	0.000000    	1               	;
 O-AV-179        	1148.9000   	0.000000    	1               	;
 I-AV-18         	973.5000    	0.000000    	1               	;
 I-AV-180        	1145.1000   	0.000000    	1               	;
 I-AV-181        	1127.9000   	0.000000    	1               	;
 O-AV-182        	784.0000    	0.000000    	1               	;
 O-AV-183        	1070.4000   	0.000000    	1               	;
 O-AV-184        	1095.6000   	0.000000    	1               	;
 O-AV-185        	1116.6000   	0.000000    	1               	;
 O-AV-186        	967.1000    	0.000000    	1               	;
 O-AV-187        	996.4000    	0.000000    	1               	;
 O-AV-188        	1207.6000   	0.000000    	1               	;
 I-AV-189        	1086.7000   	0.000000    	1               	;
 O-AV-19         	1082.0000   	0.000000    	1               	;
 O-AV-190        	1140.0000   	0.000000    	1               	;
 O-AV-191        	985.8000    	0.000000    	1               	;
 I-AV-192        	1037.2000   	0.000000    	1               	;
 O-AV-193        	922.5000    	0.000000    	1               	;
 O-AV-194        	1093.8000   	0.000000    	1               	;
 O-AV-195        	970.1000    	0.000000    	1               	;
 I-AV-196        	950.2000    	0.000000    	1               	;
 O-AV-197        	932.7000    	0.000000    	1               	;
 I-AV-198        	1035.5000   	0.000000    	1               	;
 O-AV-199        	837.3000    	0.000000    	1               	;
 I-AV-2          	1227.2000   	0.000000    	1               	;
 O-AV-20         	1275.4000   	0.000000    	1               	;
 I-AV-200        	796.9000    	0.000000    	1               	;
 I-AV-201        	1174.8000   	0.000000    	1               	;
 I-AV-202        	945.1000    	0.000000    	1               	;
 O-AV-203        	1075.3000   	0.000000    	1               	;
 O-AV-204        	980.5000    	0.000000    	1               	;
 O-AV-21         	924.5000    	0.000000    	1               	;
 O-AV-22         	1124.9000   	0.000000    	1               	;
 O-AV-23         	745.9000    	0.000000    	1               	;
 O-AV-24         	1080.2000   	0.000000    	1               	;
 O-AV-25         	997.2000    	0.000000    	1               	;
 O-AV-26         	1126.3000   	0.000000    	1               	;
 O-AV-27         	1160.0000   	0.000000    	1               	;
 O-AV-28         	1186.8000   	0.000000    	1               	;
 O-AV-29         	913.5000    	0.000000    	1               	;
 O-AV-3          	1042.7000   	0.000000    	1               	;
 O-AV-30         	1330.3000   	0.000000    	1               	;
 O-AV-31         	1216.0000   	0.000000    	1               	;
 O-AV-32         	1188.4000   	0.000000    	1               	;
 O-AV-33         	976.8000    	0.000000    	1               	;
 O-AV-34         	782.0000    	0.000000    	1               	;
 O-AV-35         	970.2000    	0.000000    	1               	;
 I-AV-36         	1137.0000   	0.000000    	1               	;
 O-AV-37         	1164.8000   	0.000000    	1               	;
 I-AV-38         	1060.3000   	0.000000    	1               	;
 O-AV-39         	1244.1000   	0.000000    	1               	;
 I-AV-4          	837.1000    	0.000000    	1               	;
 O-AV-40         	1253.0000   	0.000000    	1               	;
 I-AV-41         	831.9000    	0.000000    	1               	;
 I-AV-42         	1245.4000   	0.000000    	1               	;
 I-AV-43         	1206.6000   	0.000000    	1               	;
 I-AV-44         	912.0000    	0.000000    	1               	;
 O-AV-45         	1085.5000   	0.000000    	1               	;
 O-AV-46         	1086.6000   	0.000000    	1               	;
 I-AV-47         	1069.0000   	0.000000    	1               	;
 I-AV-48         	887.2000    	0.000000    	1               	;
 I-AV-49         	1207.9000   	0.000000    	1               	;
 O-AV-5          	1102.8000   	0.000000    	1               	;
 I-AV-50         	1162.1000   	0.000000    	1               	;
 O-AV-51         	1376.2000   	0.000000    	1               	;
 O-AV-52         	1396.0000   	0.000000    	1               	;
 O-AV-53         	1341.9000   	0.000000    	1               	;
 I-AV-54         	1238.9000   	0.000000    	1               	;
 I-AV-55         	1275.5000   	0.000000    	1               	;
 I-AV-56         	1328.7000   	0.000000    	1               	;
 O-AV-57         	1358.0000   	0.000000    	1               	;
 I-AV-58         	1200.3000   	0.000000    	1               	;
 I-AV-59         	1259.2000   	0.000000    	1               	;
 O-AV-6          	1133.0000   	0.000000    	1               	;
 O-AV-60         	1329.3000   	0.000000    	1               	;
 I-AV-61         	1062.3000   	0.000000    	1               	;
 I-AV-62         	1028.3000   	0.000000    	1               	;
 O-AV-63         	1170.7000   	0.000000    	1               	;
 O-AV-64         	0.0000      	0.000000    	1               	;
 O-AV-65         	0.0000      	0.000000    	1               	;
 O-AV-66         	0.0000      	0.000000    	1               	;
 O-AV-67         	0.0000      	0.000000    	1               	;
 I-AV-68         	0.0000      	0.000000    	1               	;
 I-AV-69         	1142.6000   	0.000000    	1               	;
 O-AV-7          	828.2000    	0.000000    	1               	;
 I-AV-70         	0.0000      	0.000000    	1               	;
 O-AV-71         	0.0000      	0.000000    	1               	;
 I-AV-72         	0.0000      	0.000000    	1               	;
 O-AV-73         	0.0000      	0.000000    	1               	;
 O-AV-74         	1159.1000   	0.000000    	1               	;
 I-AV-75         	1253.4000   	0.000000    	1               	;
 I-AV-76         	849.4000    	0.000000    	1               	;
 O-AV-77         	957.5000    	0.000000    	1               	;
 O-AV-78         	905.8000    	0.000000    	1               	;
 I-AV-79         	1350.7000   	0.000000    	1               	;
 O-AV-8          	1023.6000   	0.000000    	1               	;
 O-AV-80         	1199.4000   	0.000000    	1               	;
 O-AV-81         	886.0000    	0.000000    	1               	;
 O-AV-82         	1049.9000   	0.000000    	1               	;
 O-AV-83         	1521.0000   	0.000000    	1               	;
 O-AV-84         	1435.9000   	0.000000    	1               	;
 I-AV-85         	1024.7000   	0.000000    	1               	;
 O-AV-86         	1330.9000   	0.000000    	1               	;
 O-AV-87         	1088.6000   	0.000000    	1               	;
 I-AV-88         	1222.0000   	0.000000    	1               	;
 O-AV-89         	1404.8000   	0.000000    	1               	;
 O-AV-9          	1162.2000   	0.000000    	1               	;
 I-AV-90         	805.3000    	0.000000    	1               	;
 I-AV-91         	1097.0000   	0.000000    	1               	;
 I-AV-92         	1017.9000   	0.000000    	1               	;
 I-AV-93         	828.9000    	0.000000    	1               	;
 O-AV-94         	1061.7000   	0.000000    	1               	;
 O-AV-95         	868.1000    	0.000000    	1               	;
 O-AV-96         	988.0000    	0.000000    	1               	;
 O-AV-97         	900.3000    	0.000000    	1               	;
 I-AV-98         	1435.2000   	0.000000    	1               	;
 O-AV-99         	1196.4000   	0.000000    	1               	;
 O-Big_Branch_1  	987.4000    	0.000000    	1               	;
 O-Big_Branch_2  	1236.9000   	0.000000    	1               	;
 I-Bowens_Creek  	980.6000    	0.000000    	1               	;
 O-Bowling_Br    	968.2000    	0.000000    	1               	;
 O-Essie         	1260.4000   	0.000000    	1               	;
 I-Flackey_Branch	1277.0000   	0.000000    	1               	;
 O-Glady_Branch  	1066.0000   	0.000000    	1               	;
 I-High_Service  	1083.0000   	0.000000    	1               	;
 O-Honey_Suckle  	993.1000    	0.000000    	1               	;
 O-Hospital_Hilla	1174.8000   	0.000000    	1               	;
 I-Hurts_Creeka  	1274.5000   	0.000000    	1               	;
 O-Hyden_Spura   	832.4000    	0.000000    	1               	;
 I-Lower_Bad_Creek	937.0000    	0.000000    	1               	;
 O-Muncy_Creeka  	1024.9000   	0.000000    	1               	;
 I-Owls_Nesta    	1112.1000   	0.000000    	1               	;
 I-Polls_Creek_1 	1118.5000   	0.000000    	1               	;
 I-Polls_Creek_2 	1162.8000   	0.000000    	1               	;
 O-Rockhousea    	1273.8000   	0.000000    	1               	;
 O-Wilder_Branch 	1032.2000   	0.000000    	1               	;
 O-Wolfe_Creeka  	1265.5000   	0.000000    	1               	;
 I-Wooton_Mountain	1250.0000   	0.000000    	1               	;

[RESERVOIRS]
;ID              	Head        	Pattern         
 Middle_Fork     	1150.0000   	                	;

[TANKS]
;ID              	Elevation   	InitLevel   	MinLevel    	MaxLevel    	Diameter    	MinVol      	VolCurve
 1               	1250.0000   	1280.0000   	1250.0000   	1280.0000   	50.0000     	2454369.2609	                	;
 2               	1320.0000   	1340.0000   	1327.0000   	1340.0000   	50.0000     	2605558.4074	                	;
 3               	1150.0000   	1197.0000   	1153.0000   	1197.0000   	50.0000     	2263910.2063	                	;
 4               	1230.0000   	1250.0000   	1230.0000   	1250.0000   	50.0000     	2415099.3528	                	;
 5               	1330.0000   	1370.0000   	1330.0000   	1370.0000   	50.0000     	2611448.8936	                	;
 6               	1170.0000   	1270.0000   	1170.0000   	1270.0000   	50.0000     	2297289.6282	                	;
 7               	1190.0000   	1279.0000   	1195.0000   	1279.0000   	50.0000     	2346377.0135	                	;
 8               	1340.0000   	1440.0000   	1345.0000   	1440.0000   	50.0000     	2640901.3248	                	;
 9               	1210.0000   	1230.0000   	1215.0000   	1230.0000   	50.0000     	2385646.9216	                	;
 10              	1070.0000   	1097.0000   	1075.0000   	1097.0000   	50.0000     	2110757.5644	                	;
 11              	1260.0000   	1310.0000   	1265.0000   	1310.0000   	50.0000     	2483821.6921	                	;

[PIPES]
;ID              	Node1           	Node2           	Length      	Diameter    	Roughness   	MinorLoss   	Status
 P-1             	J-1             	I-AV-22         	2413.7900   	4.0000      	147.0000    	0.0000      	Open  	;
 P-10            	J-19            	I-AV-156        	50.4500     	4.0000      	147.0000    	0.0000      	Open  	;
 P-100           	J-154           	J-155           	2056.0300   	6.0000      	149.0000    	0.0000      	Open  	;
 P-101           	J-10            	I-AV-166        	2848.9090   	6.0000      	149.0000    	0.0000      	Open  	;
 P-102           	J-81            	J-157           	2670.2290   	6.0000      	149.0000    	0.0000      	Open  	;
 P-103           	J-158           	J-146           	1329.7600   	6.0000      	149.0000    	0.0000      	Open  	;
 P-104           	J-8             	J-159           	103.5800    	6.0000      	149.0000    	0.0000      	Open  	;
 P-105           	J-24            	J-226           	760.5390    	8.0000      	147.0000    	0.0000      	Open  	;
 P-106           	J-141           	I-AV-164        	559.3090    	6.0000      	149.0000    	0.0000      	Open  	;
 P-107           	J-162           	I-AV-60         	761.4190    	6.0000      	149.0000    	0.0000      	Open  	;
 P-108           	J-163           	I-AV-141        	2557.4890   	6.0000      	149.0000    	0.0000      	Open  	;
 P-109           	J-165           	J-166           	605.9790    	6.0000      	149.0000    	0.0000      	Open  	;
 P-11            	J-21            	J-22            	4227.8790   	4.0000      	147.0000    	0.0000      	Open  	;
 P-110           	J-167           	J-136           	987.2100    	6.0000      	149.0000    	0.0000      	Open  	;
 P-111           	J-168           	I-AV-153        	4874.3990   	6.0000      	149.0000    	0.0000      	Open  	;
 P-112           	J-148           	J-170           	31.4890     	6.0000      	149.0000    	0.0000      	Open  	;
 P-113           	J-169           	J-142           	68.5500     	6.0000      	149.0000    	0.0000      	Open  	;
 P-114           	J-110           	J-171           	347.7500    	6.0000      	149.0000    	0.0000      	Open  	;
 P-115           	J-171           	I-AV-52         	1620.5790   	6.0000      	149.0000    	0.0000      	Open  	;
 P-116           	J-151           	I-AV-120        	3666.9490   	6.0000      	149.0000    	0.0000      	Open  	;
 P-117           	J-168           	J-172           	7771.6200   	6.0000      	149.0000    	0.0000      	Open  	;
 P-118           	J-172           	I-AV-63         	1675.2600   	6.0000      	149.0000    	0.0000      	Open  	;
 P-119           	J-54            	I-AV-28         	670.9400    	6.0000      	149.0000    	0.0000      	Open  	;
 P-12            	J-23            	I-AV-189        	566.7890    	4.0000      	147.0000    	0.0000      	Open  	;
 P-120           	J-119           	I-AV-31         	491.3500    	6.0000      	149.0000    	0.0000      	Open  	;
 P-121           	J-174           	I-AV-125        	731.9000    	6.0000      	149.0000    	0.0000      	Open  	;
 P-122           	J-131           	J-160           	1813.7390   	6.0000      	149.0000    	0.0000      	Open  	;
 P-123           	J-157           	I-AV-144        	2250.2390   	6.0000      	149.0000    	0.0000      	Open  	;
 P-124           	J-156           	J-312           	97.5590     	6.0000      	149.0000    	0.0000      	Open  	;
 P-125           	J-79            	I-AV-147        	3136.4190   	6.0000      	149.0000    	0.0000      	Open  	;
 P-126           	J-178           	J-347           	13.9390     	4.0000      	147.0000    	0.0000      	Open  	;
 P-127           	J-180           	I-AV-132        	289.4890    	4.0000      	147.0000    	0.0000      	Open  	;
 P-128           	J-71            	I-Bowens_Creek  	36.5900     	4.0000      	147.0000    	0.0000      	Open  	;
 P-129           	J-2             	I-AV-20         	1537.6400   	4.0000      	147.0000    	0.0000      	Open  	;
 P-13            	J-25            	J-26            	2340.6890   	4.0000      	147.0000    	0.0000      	Open  	;
 P-132           	J-85            	I-AV-37         	576.8900    	4.0000      	147.0000    	0.0000      	Open  	;
 P-136           	J-191           	I-AV-114        	1368.1990   	4.0000      	147.0000    	0.0000      	Open  	;
 P-137           	J-12            	I-AV-83         	1126.1990   	4.0000      	147.0000    	0.0000      	Open  	;
 P-138           	J-192           	I-Essie         	162.9400    	4.0000      	147.0000    	0.0000      	Open  	;
 P-139           	J-194           	I-AV-14         	4426.1200   	4.0000      	147.0000    	0.0000      	Open  	;
 P-14            	J-25            	J-27            	1679.6890   	4.0000      	147.0000    	0.0000      	Open  	;
 P-140           	J-195           	I-AV-151        	1489.3590   	4.0000      	147.0000    	0.0000      	Open  	;
 P-141           	J-197           	I-AV-75         	12922.6100  	4.0000      	147.0000    	0.0000      	Open  	;
 P-142           	J-198           	I-AV-47         	2438.8000   	4.0000      	147.0000    	0.0000      	Open  	;
 P-143           	J-200           	I-AV-74         	1031.9590   	4.0000      	147.0000    	0.0000      	Open  	;
 P-144           	J-182           	J-149           	2045.5500   	4.0000      	147.0000    	0.0000      	Open  	;
 P-145           	J-202           	I-AV-112        	3787.7290   	4.0000      	147.0000    	0.0000      	Open  	;
 P-146           	J-159           	J-31            	2082.4690   	4.0000      	147.0000    	0.0000      	Open  	;
 P-147           	J-203           	I-AV-8          	7007.0800   	4.0000      	147.0000    	0.0000      	Open  	;
 P-148           	J-204           	J-345           	1558.6700   	4.0000      	147.0000    	0.0000      	Open  	;
 P-149           	J-206           	J-203           	13121.2090  	4.0000      	147.0000    	0.0000      	Open  	;
 P-15            	J-28            	I-AV-105        	8106.9100   	4.0000      	147.0000    	0.0000      	Open  	;
 P-150           	J-112           	I-AV-177        	2531.1990   	4.0000      	147.0000    	0.0000      	Open  	;
 P-151           	J-208           	J-209           	4570.3100   	4.0000      	147.0000    	0.0000      	Open  	;
 P-152           	J-30            	J-210           	5651.2090   	4.0000      	147.0000    	0.0000      	Open  	;
 P-154           	J-118           	I-AV-23         	2897.6990   	4.0000      	147.0000    	0.0000      	Open  	;
 P-155           	J-212           	I-Wooton_Mountain	969.8090    	4.0000      	147.0000    	0.0000      	Open  	;
 P-156           	J-127           	J-213           	233.1390    	4.0000      	147.0000    	0.0000      	Open  	;
 P-157           	J-214           	J-83            	293.0700    	4.0000      	147.0000    	0.0000      	Open  	;
 P-158           	J-215           	I-AV-92         	4229.0290   	4.0000      	147.0000    	0.0000      	Open  	;
 P-159           	J-86            	J-66            	6259.8390   	4.0000      	147.0000    	0.0000      	Open  	;
 P-16            	J-29            	I-AV-142        	12387.9590  	4.0000      	147.0000    	0.0000      	Open  	;
 P-160           	J-216           	J-217           	2182.1690   	4.0000      	147.0000    	0.0000      	Open  	;
 P-161           	J-33            	J-66            	175.2400    	4.0000      	147.0000    	0.0000      	Open  	;
 P-162           	J-218           	I-AV-116        	2630.1590   	4.0000      	147.0000    	0.0000      	Open  	;
 P-163           	J-219           	J-216           	2344.1490   	4.0000      	147.0000    	0.0000      	Open  	;
 P-164           	J-14            	J-197           	1129.7390   	4.0000      	147.0000    	0.0000      	Open  	;
 P-165           	J-220           	J-218           	2.4700      	4.0000      	147.0000    	0.0000      	Open  	;
 P-166           	J-203           	I-AV-194        	71.5000     	4.0000      	147.0000    	0.0000      	Open  	;
 P-167           	J-222           	J-189           	163.5090    	4.0000      	147.0000    	0.0000      	Open  	;
 P-168           	J-223           	J-319           	1147.9200   	4.0000      	147.0000    	0.0000      	Open  	;
 P-169           	J-210           	I-AV-103        	1393.5200   	4.0000      	147.0000    	0.0000      	Open  	;
 P-17            	J-31            	I-AV-71         	4211.0400   	4.0000      	147.0000    	0.0000      	Open  	;
 P-170           	J-225           	J-226           	5140.3790   	4.0000      	147.0000    	0.0000      	Open  	;
 P-171           	J-224           	I-AV-101        	225.9790    	4.0000      	147.0000    	0.0000      	Open  	;
 P-172           	J-228           	J-229           	2478.0900   	4.0000      	147.0000    	0.0000      	Open  	;
 P-173           	J-229           	I-AV-173        	774.6790    	4.0000      	147.0000    	0.0000      	Open  	;
 P-174           	J-206           	J-231           	3911.8700   	4.0000      	147.0000    	0.0000      	Open  	;
 P-175           	J-232           	I-AV-50         	770.6500    	4.0000      	147.0000    	0.0000      	Open  	;
 P-176           	J-234           	J-225           	1815.7390   	4.0000      	147.0000    	0.0000      	Open  	;
 P-177           	J-235           	I-AV-136        	6909.4500   	4.0000      	147.0000    	0.0000      	Open  	;
 P-178           	J-237           	J-173           	3372.3000   	4.0000      	147.0000    	0.0000      	Open  	;
 P-179           	J-238           	J-178           	454.0700    	4.0000      	147.0000    	0.0000      	Open  	;
 P-18            	J-33            	J-34            	1179.2900   	4.0000      	147.0000    	0.0000      	Open  	;
 P-180           	J-239           	J-240           	1037.2600   	4.0000      	147.0000    	0.0000      	Open  	;
 P-181           	J-241           	I-AV-133        	430.6490    	4.0000      	147.0000    	0.0000      	Open  	;
 P-182           	J-235           	J-243           	2868.3200   	4.0000      	147.0000    	0.0000      	Open  	;
 P-183           	J-244           	I-AV-99         	1144.2500   	4.0000      	147.0000    	0.0000      	Open  	;
 P-184           	J-177           	I-AV-95         	1246.5200   	4.0000      	147.0000    	0.0000      	Open  	;
 P-185           	J-49            	I-AV-134        	3106.3890   	4.0000      	147.0000    	0.0000      	Open  	;
 P-186           	J-241           	I-AV-135        	212.9190    	4.0000      	147.0000    	0.0000      	Open  	;
 P-187           	J-48            	J-180           	578.7800    	4.0000      	147.0000    	0.0000      	Open  	;
 P-188           	J-73            	I-AV-19         	864.6300    	4.0000      	147.0000    	0.0000      	Open  	;
 P-189           	J-36            	J-238           	2339.7290   	4.0000      	147.0000    	0.0000      	Open  	;
 P-19            	J-35            	J-7             	844.1900    	4.0000      	147.0000    	0.0000      	Open  	;
 P-190           	J-208           	J-245           	2788.5400   	4.0000      	147.0000    	0.0000      	Open  	;
 P-191           	J-246           	I-AV-66         	3602.0800   	4.0000      	147.0000    	0.0000      	Open  	;
 P-192           	J-62            	J-208           	1050.6190   	4.0000      	147.0000    	0.0000      	Open  	;
 P-193           	J-59            	J-221           	541.7600    	4.0000      	147.0000    	0.0000      	Open  	;
 P-194           	J-191           	I-AV-113        	1306.8900   	4.0000      	147.0000    	0.0000      	Open  	;
 P-195           	J-147           	J-191           	193.9490    	4.0000      	147.0000    	0.0000      	Open  	;
 P-196           	J-142           	J-195           	8345.9190   	4.0000      	147.0000    	0.0000      	Open  	;
 P-197           	J-248           	J-122           	4512.9790   	4.0000      	147.0000    	0.0000      	Open  	;
 P-198           	J-193           	I-AV-115        	845.9090    	4.0000      	147.0000    	0.0000      	Open  	;
 P-199           	J-170           	J-118           	5143.2990   	4.0000      	147.0000    	0.0000      	Open  	;
 P-2             	J-3             	I-AV-12         	931.5700    	4.0000      	147.0000    	0.0000      	Open  	;
 P-20            	J-36            	J-37            	4616.8190   	4.0000      	147.0000    	0.0000      	Open  	;
 P-200           	J-221           	I-AV-193        	779.5300    	4.0000      	147.0000    	0.0000      	Open  	;
 P-201           	J-250           	J-25            	696.7290    	4.0000      	147.0000    	0.0000      	Open  	;
 P-202           	J-251           	I-AV-118        	2394.6390   	4.0000      	147.0000    	0.0000      	Open  	;
 P-203           	J-234           	J-252           	1656.3690   	4.0000      	147.0000    	0.0000      	Open  	;
 P-204           	J-42            	J-262           	7120.0400   	4.0000      	147.0000    	0.0000      	Open  	;
 P-205           	J-86            	I-AV-38         	1145.6890   	4.0000      	147.0000    	0.0000      	Open  	;
 P-206           	J-69            	J-246           	827.0100    	4.0000      	147.0000    	0.0000      	Open  	;
 P-207           	J-15            	I-Big_Branch_1  	966.4690    	4.0000      	147.0000    	0.0000      	Open  	;
 P-208           	J-13            	I-AV-77         	15154.3890  	4.0000      	147.0000    	0.0000      	Open  	;
 P-209           	J-255           	J-187           	236.5800    	4.0000      	147.0000    	0.0000      	Open  	;
 P-21            	J-38            	J-325           	4080.0400   	3.0000      	147.0000    	0.0000      	Open  	;
 P-210           	J-257           	I-AV-78         	1185.3690   	4.0000      	147.0000    	0.0000      	Open  	;
 P-211           	J-50            	J-13            	7877.2200   	4.0000      	147.0000    	0.0000      	Open  	;
 P-212           	J-16            	I-AV-1          	361.1190    	4.0000      	147.0000    	0.0000      	Open  	;
 P-213           	J-11            	J-197           	19624.5000  	4.0000      	147.0000    	0.0000      	Open  	;
 P-214           	J-175           	I-AV-123        	386.5590    	4.0000      	147.0000    	0.0000      	Open  	;
 P-215           	J-22            	J-260           	1017.8800   	4.0000      	147.0000    	0.0000      	Open  	;
 P-216           	J-213           	J-261           	267.4800    	4.0000      	147.0000    	0.0000      	Open  	;
 P-217           	J-262           	J-263           	504.4800    	4.0000      	147.0000    	0.0000      	Open  	;
 P-219           	J-83            	J-9             	331.4590    	4.0000      	147.0000    	0.0000      	Open  	;
 P-22            	J-40            	I-AV-126        	1035.2500   	3.0000      	147.0000    	0.0000      	Open  	;
 P-220           	J-265           	J-266           	3439.1790   	4.0000      	147.0000    	0.0000      	Open  	;
 P-221           	J-130           	I-AV-40         	778.9190    	4.0000      	147.0000    	0.0000      	Open  	;
 P-222           	J-27            	J-268           	4800.8390   	4.0000      	147.0000    	0.0000      	Open  	;
 P-223           	J-260           	I-Big_Branch_2  	654.7100    	4.0000      	147.0000    	0.0000      	Open  	;
 P-224           	J-189           	J-67            	3801.5200   	4.0000      	147.0000    	0.0000      	Open  	;
 P-226           	J-111           	J-270           	1709.5790   	3.0000      	147.0000    	0.0000      	Open  	;
 P-227           	J-111           	J-271           	1329.2800   	3.0000      	147.0000    	0.0000      	Open  	;
 P-228           	J-68            	J-218           	1318.5000   	3.0000      	147.0000    	0.0000      	Open  	;
 P-229           	J-29            	I-AV-157        	5478.1200   	3.0000      	147.0000    	0.0000      	Open  	;
 P-23            	J-42            	J-43            	2728.3700   	3.0000      	147.0000    	0.0000      	Open  	;
 P-230           	J-57            	J-273           	1330.6400   	3.0000      	147.0000    	0.0000      	Open  	;
 P-231           	J-218           	I-AV-119        	2314.1200   	3.0000      	147.0000    	0.0000      	Open  	;
 P-232           	J-274           	J-58            	53.6390     	3.0000      	147.0000    	0.0000      	Open  	;
 P-233           	J-103           	J-275           	4510.5490   	3.0000      	147.0000    	0.0000      	Open  	;
 P-234           	J-151           	J-276           	3044.3990   	3.0000      	147.0000    	0.0000      	Open  	;
 P-235           	J-277           	J-91            	1005.7890   	3.0000      	147.0000    	0.0000      	Open  	;
 P-236           	J-278           	J-279           	4287.0290   	3.0000      	147.0000    	0.0000      	Open  	;
 P-237           	J-171           	J-280           	828.5590    	3.0000      	147.0000    	0.0000      	Open  	;
 P-238           	J-103           	J-281           	4446.2900   	3.0000      	147.0000    	0.0000      	Open  	;
 P-239           	J-210           	I-AV-102        	1494.4590   	3.0000      	147.0000    	0.0000      	Open  	;
 P-24            	J-44            	I-AV-137        	3624.3500   	3.0000      	147.0000    	0.0000      	Open  	;
 P-240           	J-53            	J-283           	1047.2800   	3.0000      	147.0000    	0.0000      	Open  	;
 P-241           	J-284           	J-285           	260.3690    	3.0000      	147.0000    	0.0000      	Open  	;
 P-242           	J-30            	J-286           	7039.8700   	3.0000      	147.0000    	0.0000      	Open  	;
 P-243           	J-222           	J-52            	1421.7700   	3.0000      	147.0000    	0.0000      	Open  	;
 P-244           	J-16            	J-287           	3302.2600   	3.0000      	147.0000    	0.0000      	Open  	;
 P-245           	J-216           	J-288           	1656.7390   	3.0000      	147.0000    	0.0000      	Open  	;
 P-246           	J-249           	J-290           	2829.1790   	3.0000      	147.0000    	0.0000      	Open  	;
 P-247           	J-290           	I-AV-196        	1835.4200   	3.0000      	147.0000    	0.0000      	Open  	;
 P-248           	J-292           	I-AV-201        	2873.6100   	3.0000      	147.0000    	0.0000      	Open  	;
 P-249           	J-294           	I-AV-4          	3939.3790   	3.0000      	147.0000    	0.0000      	Open  	;
 P-25            	J-46            	J-47            	627.8900    	3.0000      	147.0000    	0.0000      	Open  	;
 P-250           	J-296           	I-AV-5          	272.0290    	3.0000      	147.0000    	0.0000      	Open  	;
 P-251           	J-298           	J-299           	6014.8790   	3.0000      	147.0000    	0.0000      	Open  	;
 P-252           	J-300           	I-AV-195        	375.7790    	3.0000      	147.0000    	0.0000      	Open  	;
 P-253           	J-237           	I-AV-139        	134.5290    	3.0000      	147.0000    	0.0000      	Open  	;
 P-254           	J-302           	I-AV-121        	500.2500    	3.0000      	147.0000    	0.0000      	Open  	;
 P-255           	J-251           	I-Lower_Bad_Creek	1627.6800   	3.0000      	147.0000    	0.0000      	Open  	;
 P-256           	J-158           	J-124           	2456.8200   	3.0000      	147.0000    	0.0000      	Open  	;
 P-257           	J-304           	I-AV-127        	7218.6600   	3.0000      	147.0000    	0.0000      	Open  	;
 P-258           	J-77            	J-306           	911.6190    	3.0000      	147.0000    	0.0000      	Open  	;
 P-259           	J-307           	J-219           	5586.7700   	3.0000      	147.0000    	0.0000      	Open  	;
 P-26            	J-48            	I-AV-130        	3238.8600   	3.0000      	147.0000    	0.0000      	Open  	;
 P-260           	J-141           	J-284           	1080.3100   	3.0000      	147.0000    	0.0000      	Open  	;
 P-261           	J-309           	I-Bowling_Br    	1993.5100   	3.0000      	147.0000    	0.0000      	Open  	;
 P-262           	J-239           	I-AV-18         	2614.9190   	3.0000      	147.0000    	0.0000      	Open  	;
 P-263           	J-312           	J-313           	1823.1890   	3.0000      	147.0000    	0.0000      	Open  	;
 P-264           	J-314           	J-315           	1818.8490   	3.0000      	147.0000    	0.0000      	Open  	;
 P-265           	J-180           	J-316           	1699.8190   	3.0000      	147.0000    	0.0000      	Open  	;
 P-266           	J-41            	J-317           	2788.4290   	3.0000      	147.0000    	0.0000      	Open  	;
 P-267           	J-273           	I-Polls_Creek_2 	512.5200    	3.0000      	147.0000    	0.0000      	Open  	;
 P-268           	J-319           	J-320           	3653.2390   	3.0000      	147.0000    	0.0000      	Open  	;
 P-269           	J-27            	I-AV-179        	192.5890    	3.0000      	147.0000    	0.0000      	Open  	;
 P-27            	J-50            	I-AV-110        	5506.0600   	3.0000      	147.0000    	0.0000      	Open  	;
 P-270           	J-52            	J-321           	1512.6090   	3.0000      	147.0000    	0.0000      	Open  	;
 P-271           	J-213           	J-322           	453.3800    	3.0000      	147.0000    	0.0000      	Open  	;
 P-272           	J-146           	J-323           	6204.1290   	3.0000      	147.0000    	0.0000      	Open  	;
 P-273           	J-223           	J-324           	2739.8300   	3.0000      	147.0000    	0.0000      	Open  	;
 P-274           	J-325           	I-AV-89         	7803.8990   	3.0000      	147.0000    	0.0000      	Open  	;
 P-275           	J-326           	O-High_Service  	66.0190     	4.0000      	147.0000    	0.0000      	Open  	;
 P-276           	J-181           	J-326           	15.1300     	4.0000      	147.0000    	0.0000      	Open  	;
 P-277           	J-326           	J-139           	166.1900    	6.0000      	149.0000    	0.0000      	Open  	;
 P-278           	J-327           	J-332           	8.9300      	10.0000     	149.0000    	0.0000      	Open  	;
 P-279           	J-329           	O-Hurts_Creeka  	426.3800    	6.0000      	149.0000    	0.0000      	Open  	;
 P-28            	J-52            	J-53            	2020.8690   	3.0000      	147.0000    	0.0000      	Open  	;
 P-280           	J-233           	J-330           	1660.5000   	4.0000      	147.0000    	0.0000      	Open  	;
 P-281           	J-196           	J-274           	598.4000    	4.0000      	147.0000    	0.0000      	Open  	;
 P-282           	J-228           	I-AV-174        	1504.4490   	4.0000      	147.0000    	0.0000      	Open  	;
 P-283           	J-332           	I-AV-45         	96.5990     	10.0000     	149.0000    	0.0000      	Open  	;
 P-284           	J-333           	J-334           	15817.9800  	6.0000      	149.0000    	0.0000      	Open  	;
 P-285           	J-335           	J-336           	7262.7990   	4.0000      	147.0000    	0.0000      	Open  	;
 P-286           	J-244           	I-AV-97         	3072.3890   	6.0000      	149.0000    	0.0000      	Open  	;
 P-287           	J-337           	I-AV-96         	2804.1590   	6.0000      	149.0000    	0.0000      	Open  	;
 P-288           	J-337           	J-339           	8883.7400   	4.0000      	147.0000    	0.0000      	Open  	;
 P-289           	J-338           	J-340           	5430.1600   	3.0000      	147.0000    	0.0000      	Open  	;
 P-29            	J-54            	J-55            	2714.8700   	3.0000      	147.0000    	0.0000      	Open  	;
 P-290           	J-338           	I-AV-93         	1565.0400   	3.0000      	147.0000    	0.0000      	Open  	;
 P-292           	J-344           	I-AV-44         	3237.4890   	12.0000     	150.0000    	0.0000      	Open  	;
 P-293           	J-254           	J-21            	1194.0200   	4.0000      	147.0000    	0.0000      	Open  	;
 P-294           	J-331           	J-212           	360.8900    	4.0000      	147.0000    	0.0000      	Open  	;
 P-295           	J-138           	I-AV-56         	776.8400    	3.0000      	147.0000    	0.0000      	Open  	;
 P-296           	J-330           	I-Owls_Nesta    	879.5590    	4.0000      	147.0000    	0.0000      	Open  	;
 P-298           	J-249           	I-AV-197        	1668.0100   	3.0000      	147.0000    	0.0000      	Open  	;
 P-299           	J-347           	J-309           	1061.3190   	3.0000      	147.0000    	0.0000      	Open  	;
 P-3             	J-5             	I-AV-11         	3462.5400   	4.0000      	147.0000    	0.0000      	Open  	;
 P-30            	J-53            	J-40            	661.9600    	3.0000      	147.0000    	0.0000      	Open  	;
 P-300           	J-92            	J-87            	212.5890    	2.0000      	140.0000    	0.0000      	Open  	;
 P-301           	J-153           	J-119           	931.2800    	6.0000      	149.0000    	0.0000      	Open  	;
 P-302           	J-176           	J-174           	114.5590    	6.0000      	149.0000    	0.0000      	Open  	;
 P-303           	J-3             	J-2             	238.8390    	4.0000      	147.0000    	0.0000      	Open  	;
 P-304           	J-5             	I-AV-10         	4324.1090   	4.0000      	147.0000    	0.0000      	Open  	;
 P-305           	J-19            	I-AV-145        	23.2800     	4.0000      	147.0000    	0.0000      	Open  	;
 P-306           	J-46            	J-99            	263.2300    	6.0000      	149.0000    	0.0000      	Open  	;
 P-307           	J-88            	J-85            	3216.2900   	2.0000      	140.0000    	0.0000      	Open  	;
 P-308           	J-95            	I-AV-180        	1615.9100   	3.0000      	147.0000    	0.0000      	Open  	;
 P-309           	J-97            	J-96            	1890.3000   	3.0000      	147.0000    	0.0000      	Open  	;
 P-31            	J-7             	J-35            	844.1900    	3.0000      	147.0000    	0.0000      	Open  	;
 P-310           	J-99            	I-AV-24         	4717.3190   	6.0000      	149.0000    	0.0000      	Open  	;
 P-311           	J-108           	I-AV-35         	494.2990    	2.0000      	140.0000    	0.0000      	Open  	;
 P-312           	J-114           	I-AV-186        	1680.5000   	3.0000      	147.0000    	0.0000      	Open  	;
 P-313           	J-116           	I-AV-190        	818.2600    	3.0000      	147.0000    	0.0000      	Open  	;
 P-314           	J-154           	I-AV-32         	5478.5800   	6.0000      	149.0000    	0.0000      	Open  	;
 P-315           	J-163           	I-AV-160        	1522.5100   	6.0000      	149.0000    	0.0000      	Open  	;
 P-316           	J-165           	J-164           	937.8400    	6.0000      	149.0000    	0.0000      	Open  	;
 P-317           	J-172           	I-AV-154        	1102.2190   	6.0000      	149.0000    	0.0000      	Open  	;
 P-318           	J-186           	I-AV-98         	299.2600    	4.0000      	147.0000    	0.0000      	Open  	;
 P-319           	J-200           	I-AV-69         	603.8490    	4.0000      	147.0000    	0.0000      	Open  	;
 P-32            	J-45            	J-56            	2933.8790   	3.0000      	147.0000    	0.0000      	Open  	;
 P-320           	J-229           	J-214           	440.2990    	4.0000      	147.0000    	0.0000      	Open  	;
 P-321           	J-248           	J-84            	15.5690     	2.0000      	140.0000    	0.0000      	Open  	;
 P-322           	J-255           	I-AV-76         	1482.9390   	4.0000      	147.0000    	0.0000      	Open  	;
 P-323           	J-262           	J-59            	802.5700    	4.0000      	147.0000    	0.0000      	Open  	;
 P-324           	J-263           	I-AV-203        	8111.3900   	4.0000      	147.0000    	0.0000      	Open  	;
 P-325           	J-265           	J-224           	82.1600     	4.0000      	147.0000    	0.0000      	Open  	;
 P-326           	J-284           	J-308           	316.2200    	3.0000      	147.0000    	0.0000      	Open  	;
 P-327           	J-290           	J-289           	2140.8500   	3.0000      	147.0000    	0.0000      	Open  	;
 P-328           	J-292           	I-AV-202        	1423.2800   	3.0000      	147.0000    	0.0000      	Open  	;
 P-329           	J-294           	I-AV-204        	502.3990    	4.0000      	147.0000    	0.0000      	Open  	;
 P-33            	J-57            	J-58            	334.5700    	3.0000      	147.0000    	0.0000      	Open  	;
 P-330           	J-296           	J-295           	3914.8990   	3.0000      	147.0000    	0.0000      	Open  	;
 P-331           	J-298           	I-AV-6          	277.8900    	3.0000      	147.0000    	0.0000      	Open  	;
 P-332           	J-303           	J-286           	6035.1800   	8.0000      	147.0000    	0.0000      	Open  	;
 P-333           	J-312           	I-AV-62         	767.8300    	6.0000      	149.0000    	0.0000      	Open  	;
 P-334           	J-314           	J-305           	269.6190    	3.0000      	147.0000    	0.0000      	Open  	;
 P-335           	J-319           	I-AV-88         	1018.1090   	4.0000      	147.0000    	0.0000      	Open  	;
 P-336           	J-325           	I-AV-90         	2776.9290   	3.0000      	147.0000    	0.0000      	Open  	;
 P-337           	J-329           	I-AV-59         	451.5790    	6.0000      	149.0000    	0.0000      	Open  	;
 P-338           	J-332           	J-328           	186.9600    	10.0000     	149.0000    	0.0000      	Open  	;
 P-339           	J-333           	I-AV-122        	395.2790    	4.0000      	147.0000    	0.0000      	Open  	;
 P-34            	J-59            	I-AV-192        	498.8290    	3.0000      	147.0000    	0.0000      	Open  	;
 P-340           	J-335           	J-177           	3698.9690   	6.0000      	149.0000    	0.0000      	Open  	;
 P-341           	J-343           	I-AV-43         	798.4190    	8.0000      	149.0000    	0.0000      	Open  	;
 P-342           	J-344           	J-343           	1358.5000   	12.0000     	150.0000    	0.0000      	Open  	;
 P-343           	J-345           	J-205           	1959.2800   	4.0000      	147.0000    	0.0000      	Open  	;
 P-344           	J-347           	I-AV-67         	1962.5500   	4.0000      	147.0000    	0.0000      	Open  	;
 P-345           	J-183           	O-Hospital_Hilla	708.7390    	4.0000      	147.0000    	0.0000      	Open  	;
 P-346           	O-Owls_Nesta    	J-204           	1398.8900   	4.0000      	147.0000    	0.0000      	Open  	;
 P-347           	I-Hospital_Hilla	J-35            	961.9790    	4.0000      	147.0000    	0.0000      	Open  	;
 P-348           	O-Essie         	J-193           	744.4400    	4.0000      	147.0000    	0.0000      	Open  	;
 P-349           	O-Polls_Creek_1 	J-102           	1437.3490   	3.0000      	147.0000    	0.0000      	Open  	;
 P-35            	J-31            	J-61            	844.7190    	4.0000      	147.0000    	0.0000      	Open  	;
 P-350           	O-Wilder_Branch 	J-278           	263.9290    	3.0000      	147.0000    	0.0000      	Open  	;
 P-351           	O-Big_Branch_1  	J-254           	350.9400    	4.0000      	147.0000    	0.0000      	Open  	;
 P-352           	O-Big_Branch_2  	I-AV-178        	2302.7390   	4.0000      	147.0000    	0.0000      	Open  	;
 P-353           	O-Bowens_Creek  	I-AV-79         	1557.4100   	4.0000      	147.0000    	0.0000      	Open  	;
 P-354           	O-Bowling_Br    	J-310           	2989.8600   	3.0000      	147.0000    	0.0000      	Open  	;
 P-355           	O-Flackey_Branch	J-75            	1191.3390   	3.0000      	147.0000    	0.0000      	Open  	;
 P-356           	O-Glady_Branch  	J-125           	1409.4100   	3.0000      	147.0000    	0.0000      	Open  	;
 P-357           	I-High_Service  	Middle_Fork     	79.0400     	4.0000      	147.0000    	0.0000      	Open  	;
 P-358           	O-Honey_Suckle  	I-AV-109        	2162.4090   	3.0000      	147.0000    	0.0000      	Open  	;
 P-359           	I-Hurts_Creeka  	J-137           	490.9890    	6.0000      	149.0000    	0.0000      	Open  	;
 P-36            	J-62            	I-AV-70         	1083.8100   	4.0000      	147.0000    	0.0000      	Open  	;
 P-360           	O-Hyden_Spura   	J-92            	249.3000    	2.0000      	140.0000    	0.0000      	Open  	;
 P-361           	J-272           	I-AV-72         	3717.6890   	8.0000      	147.0000    	0.0000      	Open  	;
 P-362           	O-Lower_Bad_Creek	J-302           	633.3800    	3.0000      	147.0000    	0.0000      	Open  	;
 P-363           	O-Muncy_Creeka  	J-176           	101.2300    	6.0000      	149.0000    	0.0000      	Open  	;
 P-364           	O-Polls_Creek_2 	J-318           	3435.2600   	3.0000      	147.0000    	0.0000      	Open  	;
 P-365           	O-Rockhousea    	J-153           	1334.2390   	6.0000      	149.0000    	0.0000      	Open  	;
 P-366           	O-Wolfe_Creeka  	I-AV-143        	1623.3490   	4.0000      	147.0000    	0.0000      	Open  	;
 P-367           	O-Wooton_Mountain	I-AV-175        	623.8400    	4.0000      	147.0000    	0.0000      	Open  	;
 P-368           	J-160           	I-AV-48         	146.6100    	6.0000      	149.0000    	0.0000      	Open  	;
 P-369           	J-160           	J-304           	33.2790     	6.0000      	149.0000    	0.0000      	Open  	;
 P-37            	J-64            	J-65            	4452.4900   	4.0000      	147.0000    	0.0000      	Open  	;
 P-370           	J-232           	J-136           	796.2890    	8.0000      	149.0000    	0.0000      	Open  	;
 P-371           	J-104           	J-129           	30.2900     	8.0000      	149.0000    	0.0000      	Open  	;
 P-372           	J-206           	J-32            	30.2900     	8.0000      	149.0000    	0.0000      	Open  	;
 P-373           	J-134           	J-60            	1322.5400   	3.0000      	147.0000    	0.0000      	Open  	;
 P-374           	J-134           	J-113           	249.1900    	3.0000      	147.0000    	0.0000      	Open  	;
 P-375           	J-184           	I-AV-81         	433.9700    	4.0000      	147.0000    	0.0000      	Open  	;
 P-376           	J-184           	J-18            	12.3100     	4.0000      	147.0000    	0.0000      	Open  	;
 P-377           	J-185           	I-AV-58         	2091.5100   	4.0000      	147.0000    	0.0000      	Open  	;
 P-378           	J-185           	J-198           	2058.9790   	4.0000      	147.0000    	0.0000      	Open  	;
 P-379           	J-187           	J-256           	670.0990    	4.0000      	147.0000    	0.0000      	Open  	;
 P-38            	J-66            	J-62            	2957.0200   	4.0000      	147.0000    	0.0000      	Open  	;
 P-380           	J-187           	J-257           	13.9200     	4.0000      	147.0000    	0.0000      	Open  	;
 P-381           	J-278           	J-300           	10.3290     	4.0000      	147.0000    	0.0000      	Open  	;
 P-382           	J-300           	J-278           	10.3290     	4.0000      	147.0000    	0.0000      	Open  	;
 P-383           	J-288           	J-51            	886.5990    	3.0000      	147.0000    	0.0000      	Open  	;
 P-384           	J-217           	J-202           	3137.0500   	4.0000      	147.0000    	0.0000      	Open  	;
 P-385           	J-307           	J-50            	3761.1690   	4.0000      	147.0000    	0.0000      	Open  	;
 P-386           	J-145           	J-341           	9145.1100   	4.0000      	147.0000    	0.0000      	Open  	;
 P-387           	J-340           	J-144           	12405.3200  	4.0000      	147.0000    	0.0000      	Open  	;
 P-388           	J-338           	J-266           	10444.5300  	6.0000      	149.0000    	0.0000      	Open  	;
 P-389           	J-282           	J-266           	8075.1000   	3.0000      	147.0000    	0.0000      	Open  	;
 P-39            	J-67            	J-333           	27.6290     	4.0000      	147.0000    	0.0000      	Open  	;
 P-390           	J-286           	J-282           	7052.1200   	3.0000      	147.0000    	0.0000      	Open  	;
 P-391           	J-341           	J-339           	6659.8500   	3.0000      	147.0000    	0.0000      	Open  	;
 P-392           	J-253           	J-155           	3446.6100   	4.0000      	147.0000    	0.0000      	Open  	;
 P-393           	J-247           	J-78            	7823.5690   	4.0000      	147.0000    	0.0000      	Open  	;
 P-394           	J-55            	J-78            	5910.3990   	4.0000      	147.0000    	0.0000      	Open  	;
 P-395           	J-120           	I-AV-73         	2334.2090   	3.0000      	147.0000    	0.0000      	Open  	;
 P-396           	J-63            	J-65            	1554.8000   	3.0000      	147.0000    	0.0000      	Open  	;
 P-397           	J-299           	J-295           	5336.6890   	3.0000      	147.0000    	0.0000      	Open  	;
 P-398           	J-295           	J-70            	4883.2900   	3.0000      	147.0000    	0.0000      	Open  	;
 P-399           	J-245           	I-AV-68         	2052.1390   	3.0000      	147.0000    	0.0000      	Open  	;
 P-4             	J-7             	J-8             	660.1090    	4.0000      	147.0000    	0.0000      	Open  	;
 P-40            	J-69            	J-36            	755.2800    	4.0000      	147.0000    	0.0000      	Open  	;
 P-400           	J-310           	J-209           	5489.3100   	3.0000      	147.0000    	0.0000      	Open  	;
 P-401           	J-209           	J-245           	3039.3000   	3.0000      	147.0000    	0.0000      	Open  	;
 P-402           	J-310           	J-179           	2072.9190   	3.0000      	147.0000    	0.0000      	Open  	;
 P-403           	J-179           	J-37            	6320.7500   	3.0000      	147.0000    	0.0000      	Open  	;
 P-404           	J-37            	I-AV-65         	3863.2900   	3.0000      	147.0000    	0.0000      	Open  	;
 P-405           	J-306           	J-1             	5891.2590   	3.0000      	147.0000    	0.0000      	Open  	;
 P-406           	J-85            	J-231           	3922.2390   	3.0000      	147.0000    	0.0000      	Open  	;
 P-407           	J-336           	J-82            	4901.3100   	3.0000      	147.0000    	0.0000      	Open  	;
 P-408           	J-82            	I-AV-64         	2685.5800   	3.0000      	147.0000    	0.0000      	Open  	;
 P-409           	J-281           	J-80            	5731.2590   	3.0000      	147.0000    	0.0000      	Open  	;
 P-41            	J-34            	J-69            	15.2390     	4.0000      	147.0000    	0.0000      	Open  	;
 P-410           	J-166           	J-313           	4928.6600   	3.0000      	147.0000    	0.0000      	Open  	;
 P-411           	J-316           	J-56            	2665.7700   	3.0000      	147.0000    	0.0000      	Open  	;
 P-412           	J-126           	J-164           	2452.5600   	3.0000      	147.0000    	0.0000      	Open  	;
 P-413           	J-89            	J-253           	2808.0300   	3.0000      	147.0000    	0.0000      	Open  	;
 P-414           	J-205           	J-121           	1947.5990   	3.0000      	147.0000    	0.0000      	Open  	;
 P-415           	J-61            	J-233           	3692.2600   	3.0000      	147.0000    	0.0000      	Open  	;
 P-416           	J-120           	J-253           	7588.1690   	4.0000      	147.0000    	0.0000      	Open  	;
 P-417           	J-107           	J-315           	6001.1490   	4.0000      	147.0000    	0.0000      	Open  	;
 P-418           	J-317           	J-315           	6580.9300   	4.0000      	147.0000    	0.0000      	Open  	;
 P-419           	J-280           	J-232           	3696.7600   	3.0000      	147.0000    	0.0000      	Open  	;
 P-42            	J-64            	I-AV-7          	691.8090    	4.0000      	147.0000    	0.0000      	Open  	;
 P-420           	J-140           	J-280           	1946.8100   	6.0000      	149.0000    	0.0000      	Open  	;
 P-421           	J-272           	J-242           	6514.3300   	6.0000      	149.0000    	0.0000      	Open  	;
 P-422           	J-117           	J-293           	2833.6790   	4.0000      	147.0000    	0.0000      	Open  	;
 P-423           	J-121           	J-26            	2912.1590   	6.0000      	149.0000    	0.0000      	Open  	;
 P-424           	J-126           	J-236           	741.3490    	6.0000      	149.0000    	0.0000      	Open  	;
 P-425           	O-AV-1          	J-259           	6380.6490   	4.0000      	147.0000    	0.0000      	Open  	;
 P-426           	O-AV-2          	J-23            	2781.2090   	4.0000      	147.0000    	0.0000      	Open  	;
 P-427           	O-AV-3          	J-296           	269.6190    	3.0000      	147.0000    	0.0000      	Open  	;
 P-428           	O-AV-4          	I-AV-3          	5141.5690   	3.0000      	147.0000    	0.0000      	Open  	;
 P-429           	O-AV-5          	J-298           	1934.9000   	3.0000      	147.0000    	0.0000      	Open  	;
 P-43            	J-71            	I-AV-84         	1340.8800   	3.0000      	147.0000    	0.0000      	Open  	;
 P-430           	O-AV-6          	J-297           	1481.6800   	3.0000      	147.0000    	0.0000      	Open  	;
 P-431           	O-AV-7          	J-70            	2926.4790   	4.0000      	147.0000    	0.0000      	Open  	;
 P-432           	O-AV-8          	J-64            	1097.3100   	4.0000      	147.0000    	0.0000      	Open  	;
 P-433           	O-AV-9          	J-5             	421.7600    	4.0000      	147.0000    	0.0000      	Open  	;
 P-434           	O-AV-10         	J-4             	2982.6590   	4.0000      	147.0000    	0.0000      	Open  	;
 P-435           	O-AV-11         	J-6             	2828.9790   	4.0000      	147.0000    	0.0000      	Open  	;
 P-436           	O-AV-12         	I-AV-16         	4253.2090   	4.0000      	147.0000    	0.0000      	Open  	;
 P-437           	O-AV-13         	I-AV-9          	3753.7500   	4.0000      	147.0000    	0.0000      	Open  	;
 P-438           	O-AV-14         	I-AV-25         	4115.9390   	4.0000      	147.0000    	0.0000      	Open  	;
 P-439           	O-AV-15         	I-AV-13         	12113.6600  	4.0000      	147.0000    	0.0000      	Open  	;
 P-44            	J-73            	J-74            	2851.2190   	3.0000      	147.0000    	0.0000      	Open  	;
 P-440           	O-AV-16         	I-AV-15         	2577.8000   	4.0000      	147.0000    	0.0000      	Open  	;
 P-441           	O-AV-17         	J-239           	71.7600     	4.0000      	147.0000    	0.0000      	Open  	;
 P-442           	O-AV-18         	J-311           	10340.0090  	3.0000      	147.0000    	0.0000      	Open  	;
 P-443           	O-AV-19         	I-AV-17         	4519.8790   	4.0000      	147.0000    	0.0000      	Open  	;
 P-444           	O-AV-20         	J-73            	994.5000    	4.0000      	147.0000    	0.0000      	Open  	;
 P-445           	O-AV-21         	J-3             	2686.8000   	4.0000      	147.0000    	0.0000      	Open  	;
 P-446           	O-AV-22         	I-AV-21         	4289.2000   	4.0000      	147.0000    	0.0000      	Open  	;
 P-447           	O-AV-23         	J-1             	1861.9790   	4.0000      	147.0000    	0.0000      	Open  	;
 P-448           	O-AV-24         	J-148           	1.6590      	6.0000      	149.0000    	0.0000      	Open  	;
 P-449           	O-AV-25         	I-AV-2          	6348.1400   	4.0000      	147.0000    	0.0000      	Open  	;
 P-45            	J-75            	I-AV-55         	1151.3690   	3.0000      	147.0000    	0.0000      	Open  	;
 P-450           	O-AV-26         	J-46            	1733.6600   	6.0000      	149.0000    	0.0000      	Open  	;
 P-451           	O-AV-27         	J-54            	377.6490    	6.0000      	149.0000    	0.0000      	Open  	;
 P-452           	O-AV-28         	J-106           	114.8700    	6.0000      	149.0000    	0.0000      	Open  	;
 P-453           	O-AV-29         	J-152           	1003.0800   	6.0000      	149.0000    	0.0000      	Open  	;
 P-454           	O-AV-30         	J-120           	4970.1690   	3.0000      	147.0000    	0.0000      	Open  	;
 P-455           	O-AV-31         	I-AV-29         	3577.9090   	6.0000      	149.0000    	0.0000      	Open  	;
 P-456           	O-AV-32         	I-Rockhousea    	1102.0300   	6.0000      	149.0000    	0.0000      	Open  	;
 P-457           	O-AV-33         	J-154           	95.8490     	6.0000      	149.0000    	0.0000      	Open  	;
 P-458           	O-AV-34         	I-Hyden_Spura   	540.7890    	2.0000      	140.0000    	0.0000      	Open  	;
 P-459           	O-AV-35         	J-88            	1643.3290   	2.0000      	140.0000    	0.0000      	Open  	;
 P-46            	J-77            	J-78            	1074.6890   	3.0000      	147.0000    	0.0000      	Open  	;
 P-460           	O-AV-36         	J-194           	223.3390    	4.0000      	147.0000    	0.0000      	Open  	;
 P-462           	O-AV-38         	J-253           	1579.5990   	4.0000      	147.0000    	0.0000      	Open  	;
 P-463           	O-AV-39         	J-129           	686.4190    	8.0000      	149.0000    	0.0000      	Open  	;
 P-464           	O-AV-40         	J-267           	430.6600    	4.0000      	147.0000    	0.0000      	Open  	;
 P-465           	O-AV-41         	J-183           	653.5900    	4.0000      	147.0000    	0.0000      	Open  	;
 P-466           	O-AV-42         	J-344           	616.2700    	12.0000     	150.0000    	0.0000      	Open  	;
 P-467           	O-AV-43         	J-132           	1777.0500   	8.0000      	149.0000    	0.0000      	Open  	;
 P-468           	O-AV-44         	J-131           	1.7100      	12.0000     	150.0000    	0.0000      	Open  	;
 P-469           	O-AV-45         	J-131           	1255.9200   	10.0000     	149.0000    	0.0000      	Open  	;
 P-47            	J-79            	J-80            	6255.7290   	3.0000      	147.0000    	0.0000      	Open  	;
 P-470           	O-AV-46         	J-131           	1327.1890   	6.0000      	149.0000    	0.0000      	Open  	;
 P-471           	O-AV-47         	J-199           	1100.8690   	4.0000      	147.0000    	0.0000      	Open  	;
 P-472           	O-AV-48         	I-AV-128        	9068.0700   	6.0000      	149.0000    	0.0000      	Open  	;
 P-473           	O-AV-49         	J-132           	715.8800    	8.0000      	149.0000    	0.0000      	Open  	;
 P-474           	O-AV-50         	J-233           	5236.7500   	4.0000      	147.0000    	0.0000      	Open  	;
 P-475           	O-AV-51         	J-132           	793.9690    	6.0000      	149.0000    	0.0000      	Open  	;
 P-476           	O-AV-52         	J-167           	660.6900    	6.0000      	149.0000    	0.0000      	Open  	;
 P-477           	O-AV-53         	J-121           	2276.6790   	3.0000      	147.0000    	0.0000      	Open  	;
 P-478           	O-AV-54         	I-AV-53         	4115.6890   	3.0000      	147.0000    	0.0000      	Open  	;
 P-479           	O-AV-55         	J-76            	806.8090    	3.0000      	147.0000    	0.0000      	Open  	;
 P-48            	J-81            	J-82            	5386.4590   	3.0000      	147.0000    	0.0000      	Open  	;
 P-480           	O-AV-56         	I-Flackey_Branch	1315.8290   	3.0000      	147.0000    	0.0000      	Open  	;
 P-481           	O-AV-57         	J-329           	453.4800    	6.0000      	149.0000    	0.0000      	Open  	;
 P-482           	O-AV-58         	I-AV-36         	1330.8390   	4.0000      	147.0000    	0.0000      	Open  	;
 P-483           	O-AV-59         	J-140           	387.1700    	6.0000      	149.0000    	0.0000      	Open  	;
 P-484           	O-AV-60         	J-163           	1279.4000   	6.0000      	149.0000    	0.0000      	Open  	;
 P-485           	O-AV-61         	J-156           	527.5000    	6.0000      	149.0000    	0.0000      	Open  	;
 P-486           	O-AV-62         	I-AV-158        	1072.5990   	6.0000      	149.0000    	0.0000      	Open  	;
 P-487           	O-AV-63         	J-173           	19.6000     	6.0000      	149.0000    	0.0000      	Open  	;
 P-488           	O-AV-64         	J-80            	3492.5500   	3.0000      	147.0000    	0.0000      	Open  	;
 P-489           	O-AV-65         	J-306           	6833.2400   	3.0000      	147.0000    	0.0000      	Open  	;
 P-49            	J-83            	I-AV-170        	244.7400    	2.0000      	140.0000    	0.0000      	Open  	;
 P-490           	O-AV-66         	J-247           	2862.4790   	4.0000      	147.0000    	0.0000      	Open  	;
 P-491           	O-AV-67         	J-179           	3333.2190   	4.0000      	147.0000    	0.0000      	Open  	;
 P-492           	O-AV-68         	J-70            	3829.6590   	3.0000      	147.0000    	0.0000      	Open  	;
 P-493           	O-AV-69         	J-185           	6150.4100   	4.0000      	147.0000    	0.0000      	Open  	;
 P-494           	O-AV-70         	J-63            	1167.9690   	4.0000      	147.0000    	0.0000      	Open  	;
 P-495           	O-AV-71         	J-32            	2943.8100   	4.0000      	147.0000    	0.0000      	Open  	;
 P-496           	O-AV-72         	J-286           	4446.2090   	8.0000      	147.0000    	0.0000      	Open  	;
 P-497           	O-AV-73         	J-247           	1890.0500   	3.0000      	147.0000    	0.0000      	Open  	;
 P-498           	O-AV-74         	J-201           	5978.1290   	4.0000      	147.0000    	0.0000      	Open  	;
 P-499           	O-AV-75         	J-200           	4752.8500   	4.0000      	147.0000    	0.0000      	Open  	;
 P-5             	J-9             	I-AV-165        	4266.4390   	4.0000      	147.0000    	0.0000      	Open  	;
 P-50            	J-85            	J-86            	2565.7390   	2.0000      	140.0000    	0.0000      	Open  	;
 P-500           	O-AV-76         	J-15            	15099.7690  	4.0000      	147.0000    	0.0000      	Open  	;
 P-501           	O-AV-77         	J-255           	572.3490    	4.0000      	147.0000    	0.0000      	Open  	;
 P-502           	O-AV-78         	J-258           	2041.3290   	4.0000      	147.0000    	0.0000      	Open  	;
 P-503           	O-AV-79         	I-AV-80         	7255.8300   	4.0000      	147.0000    	0.0000      	Open  	;
 P-504           	O-AV-80         	J-182           	11777.5890  	4.0000      	147.0000    	0.0000      	Open  	;
 P-505           	O-AV-81         	J-16            	585.6590    	4.0000      	147.0000    	0.0000      	Open  	;
 P-506           	O-AV-82         	I-AV-86         	3465.2600   	4.0000      	147.0000    	0.0000      	Open  	;
 P-507           	O-AV-83         	J-71            	1768.6300   	4.0000      	147.0000    	0.0000      	Open  	;
 P-508           	O-AV-84         	J-72            	6354.2000   	3.0000      	147.0000    	0.0000      	Open  	;
 P-509           	O-AV-85         	J-223           	802.3090    	4.0000      	147.0000    	0.0000      	Open  	;
 P-51            	J-87            	J-108           	134.8500    	2.0000      	140.0000    	0.0000      	Open  	;
 P-510           	O-AV-86         	I-AV-85         	9992.0190   	4.0000      	147.0000    	0.0000      	Open  	;
 P-511           	O-AV-87         	J-39            	1644.0300   	4.0000      	147.0000    	0.0000      	Open  	;
 P-512           	O-AV-88         	I-AV-87         	4119.4590   	4.0000      	147.0000    	0.0000      	Open  	;
 P-513           	O-AV-89         	J-215           	8553.4900   	3.0000      	147.0000    	0.0000      	Open  	;
 P-514           	O-AV-90         	J-39            	3299.1590   	3.0000      	147.0000    	0.0000      	Open  	;
 P-515           	O-AV-91         	J-145           	10201.8390  	6.0000      	149.0000    	0.0000      	Open  	;
 P-516           	O-AV-92         	J-143           	4075.0800   	4.0000      	147.0000    	0.0000      	Open  	;
 P-517           	O-AV-93         	J-341           	4960.1690   	3.0000      	147.0000    	0.0000      	Open  	;
 P-518           	O-AV-94         	J-338           	75.9400     	6.0000      	149.0000    	0.0000      	Open  	;
 P-519           	O-AV-95         	J-244           	1371.9000   	4.0000      	147.0000    	0.0000      	Open  	;
 P-52            	J-88            	J-89            	1158.8000   	2.0000      	140.0000    	0.0000      	Open  	;
 P-520           	O-AV-96         	I-AV-94         	7413.3390   	6.0000      	149.0000    	0.0000      	Open  	;
 P-521           	O-AV-97         	J-337           	437.0000    	6.0000      	149.0000    	0.0000      	Open  	;
 P-522           	O-AV-98         	J-227           	828.9790    	4.0000      	147.0000    	0.0000      	Open  	;
 P-523           	O-AV-99         	J-227           	4758.8990   	4.0000      	147.0000    	0.0000      	Open  	;
 P-524           	O-AV-100        	J-265           	78.0290     	4.0000      	147.0000    	0.0000      	Open  	;
 P-525           	O-AV-101        	J-186           	1268.2900   	4.0000      	147.0000    	0.0000      	Open  	;
 P-526           	O-AV-102        	J-282           	3543.4490   	3.0000      	147.0000    	0.0000      	Open  	;
 P-527           	O-AV-103        	I-AV-100        	4084.5300   	4.0000      	147.0000    	0.0000      	Open  	;
 P-528           	O-AV-104        	J-18            	575.5100    	4.0000      	147.0000    	0.0000      	Open  	;
 P-529           	O-AV-105        	J-11            	630.7190    	4.0000      	147.0000    	0.0000      	Open  	;
 P-53            	J-84            	J-90            	4578.1490   	2.0000      	140.0000    	0.0000      	Open  	;
 P-530           	O-AV-106        	I-AV-82         	7098.1690   	4.0000      	147.0000    	0.0000      	Open  	;
 P-531           	O-AV-107        	J-303           	15629.7190  	3.0000      	147.0000    	0.0000      	Open  	;
 P-532           	O-AV-108        	I-AV-107        	4656.0200   	3.0000      	147.0000    	0.0000      	Open  	;
 P-533           	O-AV-109        	J-51            	1666.3390   	3.0000      	147.0000    	0.0000      	Open  	;
 P-534           	O-AV-110        	I-Honey_Suckle  	922.9790    	3.0000      	147.0000    	0.0000      	Open  	;
 P-535           	O-AV-111        	J-202           	4482.8590   	4.0000      	147.0000    	0.0000      	Open  	;
 P-536           	O-AV-112        	J-28            	604.9790    	4.0000      	147.0000    	0.0000      	Open  	;
 P-537           	O-AV-113        	J-219           	462.3500    	4.0000      	147.0000    	0.0000      	Open  	;
 P-538           	O-AV-114        	J-192           	52.0090     	4.0000      	147.0000    	0.0000      	Open  	;
 P-539           	O-AV-115        	I-AV-111        	2189.3200   	4.0000      	147.0000    	0.0000      	Open  	;
 P-54            	J-91            	I-AV-34         	1480.1700   	2.0000      	140.0000    	0.0000      	Open  	;
 P-540           	O-AV-116        	I-AV-117        	3276.5900   	4.0000      	147.0000    	0.0000      	Open  	;
 P-541           	O-AV-117        	J-50            	576.0800    	4.0000      	147.0000    	0.0000      	Open  	;
 P-542           	O-AV-118        	I-AV-106        	4379.6400   	4.0000      	147.0000    	0.0000      	Open  	;
 P-543           	O-AV-119        	J-251           	327.9800    	3.0000      	147.0000    	0.0000      	Open  	;
 P-544           	O-AV-120        	J-158           	153.8390    	6.0000      	149.0000    	0.0000      	Open  	;
 P-545           	O-AV-121        	I-AV-108        	3388.7900   	3.0000      	147.0000    	0.0000      	Open  	;
 P-546           	O-AV-122        	J-68            	3321.1590   	4.0000      	147.0000    	0.0000      	Open  	;
 P-547           	O-AV-123        	J-222           	75.2500     	4.0000      	147.0000    	0.0000      	Open  	;
 P-548           	O-AV-124        	J-151           	19.0590     	6.0000      	149.0000    	0.0000      	Open  	;
 P-549           	O-AV-125        	J-175           	5559.9790   	6.0000      	149.0000    	0.0000      	Open  	;
 P-55            	J-93            	J-91            	522.7390    	2.0000      	147.0000    	0.0000      	Open  	;
 P-550           	O-AV-126        	J-41            	371.4200    	3.0000      	147.0000    	0.0000      	Open  	;
 P-551           	O-AV-127        	J-314           	1395.4000   	3.0000      	147.0000    	0.0000      	Open  	;
 P-552           	O-AV-128        	I-Muncy_Creeka  	271.5290    	6.0000      	149.0000    	0.0000      	Open  	;
 P-553           	O-AV-129        	I-AV-104        	2006.2700   	4.0000      	147.0000    	0.0000      	Open  	;
 P-554           	O-AV-130        	J-49            	1774.4590   	3.0000      	147.0000    	0.0000      	Open  	;
 P-555           	O-AV-131        	J-181           	6121.3190   	4.0000      	147.0000    	0.0000      	Open  	;
 P-556           	O-AV-132        	I-AV-131        	2630.1200   	4.0000      	147.0000    	0.0000      	Open  	;
 P-557           	O-AV-133        	J-242           	6269.7590   	4.0000      	147.0000    	0.0000      	Open  	;
 P-558           	O-AV-134        	J-241           	4330.8590   	4.0000      	147.0000    	0.0000      	Open  	;
 P-559           	O-AV-135        	I-AV-138        	4436.2090   	4.0000      	147.0000    	0.0000      	Open  	;
 P-56            	J-94            	J-95            	2289.4390   	3.0000      	147.0000    	0.0000      	Open  	;
 P-560           	O-AV-136        	I-AV-140        	1735.1500   	4.0000      	147.0000    	0.0000      	Open  	;
 P-561           	O-AV-137        	J-45            	199.3000    	3.0000      	147.0000    	0.0000      	Open  	;
 P-562           	O-AV-138        	J-235           	2554.3700   	4.0000      	147.0000    	0.0000      	Open  	;
 P-563           	O-AV-139        	J-126           	854.3300    	3.0000      	147.0000    	0.0000      	Open  	;
 P-564           	O-AV-140        	J-236           	37.6500     	4.0000      	147.0000    	0.0000      	Open  	;
 P-565           	O-AV-141        	J-165           	116.0400    	6.0000      	149.0000    	0.0000      	Open  	;
 P-566           	O-AV-142        	I-Wolfe_Creeka  	3477.7190   	4.0000      	147.0000    	0.0000      	Open  	;
 P-567           	O-AV-143        	J-30            	1431.1090   	4.0000      	147.0000    	0.0000      	Open  	;
 P-568           	O-AV-144        	J-335           	117.2300    	6.0000      	149.0000    	0.0000      	Open  	;
 P-569           	O-AV-145        	J-184           	4423.5090   	4.0000      	147.0000    	0.0000      	Open  	;
 P-57            	J-95            	I-AV-181        	128.9900    	3.0000      	147.0000    	0.0000      	Open  	;
 P-570           	O-AV-146        	J-81            	1473.5990   	6.0000      	149.0000    	0.0000      	Open  	;
 P-571           	O-AV-147        	I-AV-146        	4726.6600   	6.0000      	149.0000    	0.0000      	Open  	;
 P-572           	O-AV-148        	J-79            	1254.0300   	6.0000      	149.0000    	0.0000      	Open  	;
 P-573           	O-AV-149        	I-AV-148        	1596.0990   	6.0000      	149.0000    	0.0000      	Open  	;
 P-574           	O-AV-150        	I-AV-162        	6864.8790   	6.0000      	149.0000    	0.0000      	Open  	;
 P-575           	O-AV-151        	J-196           	4387.6290   	4.0000      	147.0000    	0.0000      	Open  	;
 P-576           	O-AV-152        	J-103           	135.1300    	3.0000      	147.0000    	0.0000      	Open  	;
 P-577           	O-AV-153        	J-169           	7.9290      	6.0000      	149.0000    	0.0000      	Open  	;
 P-578           	O-AV-154        	I-AV-155        	5775.0890   	6.0000      	149.0000    	0.0000      	Open  	;
 P-579           	O-AV-155        	J-29            	171.9190    	6.0000      	149.0000    	0.0000      	Open  	;
 P-58            	J-97            	J-98            	2442.8500   	3.0000      	147.0000    	0.0000      	Open  	;
 P-580           	O-AV-156        	I-AV-167        	2869.3200   	4.0000      	147.0000    	0.0000      	Open  	;
 P-581           	O-AV-157        	J-272           	7915.0890   	3.0000      	147.0000    	0.0000      	Open  	;
 P-582           	O-AV-158        	J-168           	21.4890     	6.0000      	149.0000    	0.0000      	Open  	;
 P-583           	O-AV-159        	J-162           	3519.8890   	6.0000      	149.0000    	0.0000      	Open  	;
 P-584           	O-AV-160        	J-44            	59.0290     	6.0000      	149.0000    	0.0000      	Open  	;
 P-585           	O-AV-161        	I-AV-91         	4432.0490   	6.0000      	149.0000    	0.0000      	Open  	;
 P-586           	O-AV-162        	I-AV-149        	8552.7690   	6.0000      	149.0000    	0.0000      	Open  	;
 P-587           	O-AV-163        	I-AV-61         	3549.4390   	6.0000      	149.0000    	0.0000      	Open  	;
 P-588           	O-AV-164        	I-AV-159        	3850.3790   	6.0000      	149.0000    	0.0000      	Open  	;
 P-589           	O-AV-165        	J-10            	308.4890    	4.0000      	147.0000    	0.0000      	Open  	;
 P-59            	J-99            	J-100           	943.9090    	3.0000      	147.0000    	0.0000      	Open  	;
 P-590           	O-AV-166        	I-AV-163        	1406.0790   	6.0000      	149.0000    	0.0000      	Open  	;
 P-591           	O-AV-167        	J-20            	2589.6690   	4.0000      	147.0000    	0.0000      	Open  	;
 P-592           	O-AV-168        	I-AV-169        	5658.4900   	2.0000      	140.0000    	0.0000      	Open  	;
 P-593           	O-AV-169        	J-248           	93.8490     	2.0000      	140.0000    	0.0000      	Open  	;
 P-594           	O-AV-170        	I-AV-168        	4174.7090   	2.0000      	140.0000    	0.0000      	Open  	;
 P-595           	O-AV-171        	J-9             	673.0800    	3.0000      	147.0000    	0.0000      	Open  	;
 P-596           	O-AV-172        	I-AV-171        	1276.1800   	3.0000      	147.0000    	0.0000      	Open  	;
 P-597           	O-AV-173        	J-230           	704.6790    	4.0000      	147.0000    	0.0000      	Open  	;
 P-598           	O-AV-174        	J-331           	1442.4390   	4.0000      	147.0000    	0.0000      	Open  	;
 P-599           	O-AV-175        	I-AV-176        	4599.7790   	4.0000      	147.0000    	0.0000      	Open  	;
 P-6             	J-11            	J-12            	364.3390    	4.0000      	147.0000    	0.0000      	Open  	;
 P-60            	J-40            	J-101           	2696.4190   	3.0000      	147.0000    	0.0000      	Open  	;
 P-600           	O-AV-176        	J-112           	161.8690    	4.0000      	147.0000    	0.0000      	Open  	;
 P-601           	O-AV-177        	J-207           	1770.6090   	4.0000      	147.0000    	0.0000      	Open  	;
 P-602           	O-AV-178        	J-234           	1802.4590   	4.0000      	147.0000    	0.0000      	Open  	;
 P-603           	O-AV-179        	I-AV-172        	4873.8790   	3.0000      	147.0000    	0.0000      	Open  	;
 P-604           	O-AV-180        	J-27            	62.8300     	3.0000      	147.0000    	0.0000      	Open  	;
 P-605           	O-AV-181        	J-97            	1027.0000   	3.0000      	147.0000    	0.0000      	Open  	;
 P-606           	O-AV-182        	I-AV-183        	3536.3700   	3.0000      	147.0000    	0.0000      	Open  	;
 P-607           	O-AV-183        	I-AV-184        	4355.8990   	3.0000      	147.0000    	0.0000      	Open  	;
 P-608           	O-AV-184        	I-AV-185        	1946.9790   	3.0000      	147.0000    	0.0000      	Open  	;
 P-609           	O-AV-185        	J-114           	123.8090    	3.0000      	147.0000    	0.0000      	Open  	;
 P-61            	J-102           	I-AV-152        	2318.7700   	3.0000      	147.0000    	0.0000      	Open  	;
 P-610           	O-AV-186        	I-AV-187        	2713.6290   	3.0000      	147.0000    	0.0000      	Open  	;
 P-611           	O-AV-187        	I-AV-188        	4268.6690   	3.0000      	147.0000    	0.0000      	Open  	;
 P-612           	O-AV-188        	J-116           	111.1500    	3.0000      	147.0000    	0.0000      	Open  	;
 P-613           	O-AV-189        	J-24            	433.1000    	4.0000      	147.0000    	0.0000      	Open  	;
 P-614           	O-AV-190        	I-AV-191        	2870.0700   	3.0000      	147.0000    	0.0000      	Open  	;
 P-615           	O-AV-191        	J-113           	380.3900    	3.0000      	147.0000    	0.0000      	Open  	;
 P-616           	O-AV-192        	J-134           	347.5400    	3.0000      	147.0000    	0.0000      	Open  	;
 P-617           	O-AV-193        	J-263           	125.9700    	4.0000      	147.0000    	0.0000      	Open  	;
 P-618           	O-AV-194        	J-221           	511.2500    	4.0000      	147.0000    	0.0000      	Open  	;
 P-619           	O-AV-195        	J-301           	1106.6800   	3.0000      	147.0000    	0.0000      	Open  	;
 P-62            	J-104           	J-105           	447.2500    	3.0000      	147.0000    	0.0000      	Open  	;
 P-620           	O-AV-196        	I-AV-199        	1458.4300   	3.0000      	147.0000    	0.0000      	Open  	;
 P-621           	O-AV-197        	I-Wilder_Branch 	581.7990    	3.0000      	147.0000    	0.0000      	Open  	;
 P-622           	O-AV-198        	J-292           	232.6690    	3.0000      	147.0000    	0.0000      	Open  	;
 P-623           	O-AV-199        	I-AV-200        	1585.8190   	3.0000      	147.0000    	0.0000      	Open  	;
 P-624           	O-AV-200        	I-AV-198        	4344.5000   	3.0000      	147.0000    	0.0000      	Open  	;
 P-625           	O-AV-201        	J-293           	5651.9500   	3.0000      	147.0000    	0.0000      	Open  	;
 P-626           	O-AV-202        	J-291           	2422.0200   	3.0000      	147.0000    	0.0000      	Open  	;
 P-627           	O-AV-203        	J-294           	534.7390    	4.0000      	147.0000    	0.0000      	Open  	;
 P-628           	O-AV-204        	J-249           	8517.1290   	4.0000      	147.0000    	0.0000      	Open  	;
 P-63            	J-58            	I-Polls_Creek_1 	379.3290    	3.0000      	147.0000    	0.0000      	Open  	;
 P-64            	J-106           	J-107           	3317.6790   	3.0000      	147.0000    	0.0000      	Open  	;
 P-65            	J-108           	J-109           	1884.8290   	3.0000      	147.0000    	0.0000      	Open  	;
 P-66            	J-110           	J-111           	674.1900    	3.0000      	147.0000    	0.0000      	Open  	;
 P-67            	J-112           	I-AV-182        	5698.2500   	3.0000      	147.0000    	0.0000      	Open  	;
 P-68            	J-114           	J-115           	930.3200    	3.0000      	147.0000    	0.0000      	Open  	;
 P-69            	J-116           	J-117           	2366.5300   	3.0000      	147.0000    	0.0000      	Open  	;
 P-7             	J-13            	J-14            	2688.9090   	4.0000      	147.0000    	0.0000      	Open  	;
 P-70            	J-118           	J-77            	2413.8990   	3.0000      	147.0000    	0.0000      	Open  	;
 P-71            	J-119           	I-AV-30         	568.9790    	3.0000      	147.0000    	0.0000      	Open  	;
 P-72            	J-76            	I-AV-54         	1751.4100   	3.0000      	147.0000    	0.0000      	Open  	;
 P-73            	J-122           	J-123           	1564.5690   	3.0000      	147.0000    	0.0000      	Open  	;
 P-74            	J-124           	I-Glady_Branch  	193.2700    	3.0000      	147.0000    	0.0000      	Open  	;
 P-75            	J-126           	J-45            	5216.5800   	3.0000      	147.0000    	0.0000      	Open  	;
 P-76            	J-127           	J-128           	255.7890    	8.0000      	149.0000    	0.0000      	Open  	;
 P-77            	J-128           	I-AV-39         	966.3400    	8.0000      	149.0000    	0.0000      	Open  	;
 P-78            	J-128           	J-130           	608.4190    	8.0000      	149.0000    	0.0000      	Open  	;
 P-79            	J-131           	J-343           	2506.9890   	8.0000      	149.0000    	0.0000      	Open  	;
 P-8             	J-15            	J-19            	1901.0200   	4.0000      	147.0000    	0.0000      	Open  	;
 P-80            	J-130           	J-133           	38.8490     	8.0000      	149.0000    	0.0000      	Open  	;
 P-81            	J-127           	I-AV-49         	2103.5600   	8.0000      	149.0000    	0.0000      	Open  	;
 P-82            	J-104           	J-93            	1058.8000   	8.0000      	149.0000    	0.0000      	Open  	;
 P-83            	J-93            	J-135           	285.0100    	6.0000      	149.0000    	0.0000      	Open  	;
 P-84            	J-133           	J-8             	94.5800     	6.0000      	149.0000    	0.0000      	Open  	;
 P-85            	J-136           	I-AV-51         	938.4190    	6.0000      	149.0000    	0.0000      	Open  	;
 P-86            	J-137           	J-110           	425.6700    	6.0000      	149.0000    	0.0000      	Open  	;
 P-87            	J-44            	J-138           	3239.8890   	6.0000      	149.0000    	0.0000      	Open  	;
 P-88            	J-139           	I-AV-46         	275.5890    	6.0000      	149.0000    	0.0000      	Open  	;
 P-89            	J-138           	I-AV-57         	3464.0300   	6.0000      	149.0000    	0.0000      	Open  	;
 P-9             	J-17            	I-AV-129        	436.6190    	4.0000      	147.0000    	0.0000      	Open  	;
 P-90            	J-10            	J-141           	571.3200    	6.0000      	149.0000    	0.0000      	Open  	;
 P-91            	J-142           	I-AV-150        	1677.0500   	6.0000      	149.0000    	0.0000      	Open  	;
 P-92            	J-143           	J-144           	5859.7990   	6.0000      	149.0000    	0.0000      	Open  	;
 P-93            	J-144           	I-AV-161        	2973.0700   	6.0000      	149.0000    	0.0000      	Open  	;
 P-94            	J-146           	J-147           	4012.4390   	6.0000      	149.0000    	0.0000      	Open  	;
 P-95            	J-106           	I-AV-26         	2005.2600   	6.0000      	149.0000    	0.0000      	Open  	;
 P-96            	J-149           	J-150           	3609.7190   	6.0000      	149.0000    	0.0000      	Open  	;
 P-97            	J-67            	I-AV-124        	3751.7900   	6.0000      	149.0000    	0.0000      	Open  	;
 P-98            	J-152           	I-AV-27         	551.9600    	6.0000      	149.0000    	0.0000      	Open  	;
 P-99            	J-135           	I-AV-33         	6743.1090   	6.0000      	149.0000    	0.0000      	Open  	;
 1               	1               	J-22            	1300.0000   	4.0000      	147.0000    	0.0000      	Open  	;
 2               	2               	J-252           	500.0000    	4.0000      	147.0000    	0.0000      	Open  	;
 3               	3               	J-28            	229.0000    	4.0000      	147.0000    	0.0000      	Open  	;
 4               	4               	I-AV-41         	318.0000    	4.0000      	147.0000    	0.0000      	Open  	;
 5               	5               	J-162           	1200.0000   	4.0000      	147.0000    	0.0000      	Open  	;
 6               	6               	O-AV-37         	670.0000    	4.0000      	147.0000    	0.0000      	Open  	;
 7               	7               	J-189           	679.0000    	4.0000      	147.0000    	0.0000      	Open  	;
 8               	8               	I-AV-42         	460.0000    	12.0000     	150.0000    	0.0000      	Open  	;
 9               	9               	J-345           	2000.0000   	4.0000      	147.0000    	0.0000      	Open  	;
 10              	10              	J-148           	185.0000    	4.0000      	147.0000    	0.0000      	Open  	;
 11              	11              	J-186           	250.0000    	4.0000      	147.0000    	0.0000      	Open  	;

[PUMPS]
;ID              	Node1           	Node2           	Parameters
 ~@Big_Branch_1  	I-Big_Branch_1  	O-Big_Branch_1  	POWER 7.0000	;
 ~@Big_Branch_2  	I-Big_Branch_2  	O-Big_Branch_2  	POWER 7.0000	;
 ~@Bowens_Creek  	I-Bowens_Creek  	O-Bowens_Creek  	POWER 15.0000	;
 ~@Bowling_Br    	I-Bowling_Br    	O-Bowling_Br    	POWER 0.5000	;
 ~@Essie         	I-Essie         	O-Essie         	POWER 15.0000	;
 ~@Flackey_Branch	I-Flackey_Branch	O-Flackey_Branch	POWER 4.0000	;
 ~@Glady_Branch  	I-Glady_Branch  	O-Glady_Branch  	POWER 4.0000	;
 ~@High_Service  	I-High_Service  	O-High_Service  	POWER 75.0000	;
 ~@Honey_Suckle  	I-Honey_Suckle  	O-Honey_Suckle  	POWER 4.0000	;
 ~@Hospital_Hilla	I-Hospital_Hilla	O-Hospital_Hilla	POWER 5.0000	;
 ~@Hurts_Creeka  	I-Hurts_Creeka  	O-Hurts_Creeka  	POWER 30.0000	;
 ~@Hyden_Spura   	I-Hyden_Spura   	O-Hyden_Spura   	POWER 40.0000	;
 ~@Lower_Bad_Creek	I-Lower_Bad_Creek	O-Lower_Bad_Creek	POWER 15.0000	;
 ~@Muncy_Creeka  	I-Muncy_Creeka  	O-Muncy_Creeka  	POWER 40.0000	;
 ~@Owls_Nesta    	I-Owls_Nesta    	O-Owls_Nesta    	POWER 5.0000	;
 ~@Polls_Creek_1 	I-Polls_Creek_1 	O-Polls_Creek_1 	POWER 3.0000	;
 ~@Polls_Creek_2 	I-Polls_Creek_2 	O-Polls_Creek_2 	POWER 3.0000	;
 ~@Rockhousea    	I-Rockhousea    	O-Rockhousea    	POWER 20.0000	;
 ~@Wilder_Branch 	I-Wilder_Branch 	O-Wilder_Branch 	POWER 4.0000	;
 ~@Wolfe_Creeka  	I-Wolfe_Creeka  	O-Wolfe_Creeka  	POWER 15.0000	;
 ~@Wooton_Mountain	I-Wooton_Mountain	O-Wooton_Mountain	POWER 3.0000	;

[VALVES]
;ID              	Node1           	Node2           	Diameter    	Type	Setting     	MinorLoss   
 ~@AV-1          	I-AV-1          	O-AV-1          	1000.0000   	TCV 	100.0000    	0.0000      	;
 ~@AV-10         	I-AV-10         	O-AV-10         	1000.0000   	TCV 	100.0000    	0.0000      	;
 ~@AV-100        	I-AV-100        	O-AV-100        	1000.0000   	TCV 	100.0000    	0.0000      	;
 ~@AV-101        	I-AV-101        	O-AV-101        	1000.0000   	TCV 	100.0000    	0.0000      	;
 ~@AV-102        	I-AV-102        	O-AV-102        	1000.0000   	TCV 	100.0000    	0.0000      	;
 ~@AV-103        	I-AV-103        	O-AV-103        	1000.0000   	TCV 	100.0000    	0.0000      	;
 ~@AV-104        	I-AV-104        	O-AV-104        	1000.0000   	TCV 	100.0000    	0.0000      	;
 ~@AV-105        	I-AV-105        	O-AV-105        	1000.0000   	TCV 	100.0000    	0.0000      	;
 ~@AV-106        	I-AV-106        	O-AV-106        	1000.0000   	TCV 	100.0000    	0.0000      	;
 ~@AV-107        	I-AV-107        	O-AV-107        	1000.0000   	TCV 	100.0000    	0.0000      	;
 ~@AV-108        	I-AV-108        	O-AV-108        	1000.0000   	TCV 	100.0000    	0.0000      	;
 ~@AV-109        	I-AV-109        	O-AV-109        	1000.0000   	TCV 	100.0000    	0.0000      	;
 ~@AV-11         	I-AV-11         	O-AV-11         	1000.0000   	TCV 	100.0000    	0.0000      	;
 ~@AV-110        	I-AV-110        	O-AV-110        	1000.0000   	TCV 	100.0000    	0.0000      	;
 ~@AV-111        	I-AV-111        	O-AV-111        	1000.0000   	TCV 	100.0000    	0.0000      	;
 ~@AV-112        	I-AV-112        	O-AV-112        	1000.0000   	TCV 	100.0000    	0.0000      	;
 ~@AV-113        	I-AV-113        	O-AV-113        	1000.0000   	TCV 	100.0000    	0.0000      	;
 ~@AV-114        	I-AV-114        	O-AV-114        	1000.0000   	TCV 	100.0000    	0.0000      	;
 ~@AV-115        	I-AV-115        	O-AV-115        	1000.0000   	TCV 	100.0000    	0.0000      	;
 ~@AV-116        	I-AV-116        	O-AV-116        	1000.0000   	TCV 	100.0000    	0.0000      	;
 ~@AV-117        	I-AV-117        	O-AV-117        	1000.0000   	TCV 	100.0000    	0.0000      	;
 ~@AV-118        	I-AV-118        	O-AV-118        	1000.0000   	TCV 	100.0000    	0.0000      	;
 ~@AV-119        	I-AV-119        	O-AV-119        	1000.0000   	TCV 	100.0000    	0.0000      	;
 ~@AV-12         	I-AV-12         	O-AV-12         	1000.0000   	TCV 	100.0000    	0.0000      	;
 ~@AV-120        	I-AV-120        	O-AV-120        	1000.0000   	TCV 	100.0000    	0.0000      	;
 ~@AV-121        	I-AV-121        	O-AV-121        	1000.0000   	TCV 	100.0000    	0.0000      	;
 ~@AV-122        	I-AV-122        	O-AV-122        	1000.0000   	TCV 	100.0000    	0.0000      	;
 ~@AV-123        	I-AV-123        	O-AV-123        	1000.0000   	TCV 	100.0000    	0.0000      	;
 ~@AV-124        	I-AV-124        	O-AV-124        	1000.0000   	TCV 	100.0000    	0.0000      	;
 ~@AV-125        	I-AV-125        	O-AV-125        	1000.0000   	TCV 	100.0000    	0.0000      	;
 ~@AV-126        	I-AV-126        	O-AV-126        	1000.0000   	TCV 	100.0000    	0.0000      	;
 ~@AV-127        	I-AV-127        	O-AV-127        	1000.0000   	TCV 	100.0000    	0.0000      	;
 ~@AV-128        	I-AV-128        	O-AV-128        	1000.0000   	TCV 	100.0000    	0.0000      	;
 ~@AV-129        	I-AV-129        	O-AV-129        	1000.0000   	TCV 	100.0000    	0.0000      	;
 ~@AV-13         	I-AV-13         	O-AV-13         	1000.0000   	TCV 	100.0000    	0.0000      	;
 ~@AV-130        	I-AV-130        	O-AV-130        	1000.0000   	TCV 	100.0000    	0.0000      	;
 ~@AV-131        	I-AV-131        	O-AV-131        	1000.0000   	TCV 	100.0000    	0.0000      	;
 ~@AV-132        	I-AV-132        	O-AV-132        	1000.0000   	TCV 	100.0000    	0.0000      	;
 ~@AV-133        	I-AV-133        	O-AV-133        	1000.0000   	TCV 	100.0000    	0.0000      	;
 ~@AV-134        	I-AV-134        	O-AV-134        	1000.0000   	TCV 	100.0000    	0.0000      	;
 ~@AV-135        	I-AV-135        	O-AV-135        	1000.0000   	TCV 	100.0000    	0.0000      	;
 ~@AV-136        	I-AV-136        	O-AV-136        	1000.0000   	TCV 	100.0000    	0.0000      	;
 ~@AV-137        	I-AV-137        	O-AV-137        	1000.0000   	TCV 	100.0000    	0.0000      	;
 ~@AV-138        	I-AV-138        	O-AV-138        	1000.0000   	TCV 	100.0000    	0.0000      	;
 ~@AV-139        	I-AV-139        	O-AV-139        	1000.0000   	TCV 	100.0000    	0.0000      	;
 ~@AV-14         	I-AV-14         	O-AV-14         	1000.0000   	TCV 	100.0000    	0.0000      	;
 ~@AV-140        	I-AV-140        	O-AV-140        	1000.0000   	TCV 	100.0000    	0.0000      	;
 ~@AV-141        	I-AV-141        	O-AV-141        	1000.0000   	TCV 	100.0000    	0.0000      	;
 ~@AV-142        	I-AV-142        	O-AV-142        	1000.0000   	TCV 	100.0000    	0.0000      	;
 ~@AV-143        	I-AV-143        	O-AV-143        	1000.0000   	TCV 	100.0000    	0.0000      	;
 ~@AV-144        	I-AV-144        	O-AV-144        	1000.0000   	TCV 	100.0000    	0.0000      	;
 ~@AV-145        	I-AV-145        	O-AV-145        	1000.0000   	TCV 	100.0000    	0.0000      	;
 ~@AV-146        	I-AV-146        	O-AV-146        	1000.0000   	TCV 	100.0000    	0.0000      	;
 ~@AV-147        	I-AV-147        	O-AV-147        	1000.0000   	TCV 	100.0000    	0.0000      	;
 ~@AV-148        	I-AV-148        	O-AV-148        	1000.0000   	TCV 	100.0000    	0.0000      	;
 ~@AV-149        	I-AV-149        	O-AV-149        	1000.0000   	TCV 	100.0000    	0.0000      	;
 ~@AV-15         	I-AV-15         	O-AV-15         	1000.0000   	TCV 	100.0000    	0.0000      	;
 ~@AV-150        	I-AV-150        	O-AV-150        	1000.0000   	TCV 	100.0000    	0.0000      	;
 ~@AV-151        	I-AV-151        	O-AV-151        	1000.0000   	TCV 	100.0000    	0.0000      	;
 ~@AV-152        	I-AV-152        	O-AV-152        	1000.0000   	TCV 	100.0000    	0.0000      	;
 ~@AV-153        	I-AV-153        	O-AV-153        	1000.0000   	TCV 	100.0000    	0.0000      	;
 ~@AV-154        	I-AV-154        	O-AV-154        	1000.0000   	TCV 	100.0000    	0.0000      	;
 ~@AV-155        	I-AV-155        	O-AV-155        	1000.0000   	TCV 	100.0000    	0.0000      	;
 ~@AV-156        	I-AV-156        	O-AV-156        	1000.0000   	TCV 	100.0000    	0.0000      	;
 ~@AV-157        	I-AV-157        	O-AV-157        	1000.0000   	TCV 	100.0000    	0.0000      	;
 ~@AV-158        	I-AV-158        	O-AV-158        	1000.0000   	TCV 	100.0000    	0.0000      	;
 ~@AV-159        	I-AV-159        	O-AV-159        	1000.0000   	TCV 	100.0000    	0.0000      	;
 ~@AV-16         	I-AV-16         	O-AV-16         	1000.0000   	TCV 	100.0000    	0.0000      	;
 ~@AV-160        	I-AV-160        	O-AV-160        	1000.0000   	TCV 	100.0000    	0.0000      	;
 ~@AV-161        	I-AV-161        	O-AV-161        	1000.0000   	TCV 	100.0000    	0.0000      	;
 ~@AV-162        	I-AV-162        	O-AV-162        	1000.0000   	TCV 	100.0000    	0.0000      	;
 ~@AV-163        	I-AV-163        	O-AV-163        	1000.0000   	TCV 	100.0000    	0.0000      	;
 ~@AV-164        	I-AV-164        	O-AV-164        	1000.0000   	TCV 	100.0000    	0.0000      	;
 ~@AV-165        	I-AV-165        	O-AV-165        	1000.0000   	TCV 	100.0000    	0.0000      	;
 ~@AV-166        	I-AV-166        	O-AV-166        	1000.0000   	TCV 	100.0000    	0.0000      	;
 ~@AV-167        	I-AV-167        	O-AV-167        	1000.0000   	TCV 	100.0000    	0.0000      	;
 ~@AV-168        	I-AV-168        	O-AV-168        	1000.0000   	TCV 	100.0000    	0.0000      	;
 ~@AV-169        	I-AV-169        	O-AV-169        	1000.0000   	TCV 	100.0000    	0.0000      	;
 ~@AV-17         	I-AV-17         	O-AV-17         	1000.0000   	TCV 	100.0000    	0.0000      	;
 ~@AV-170        	I-AV-170        	O-AV-170        	1000.0000   	TCV 	100.0000    	0.0000      	;
 ~@AV-171        	I-AV-171        	O-AV-171        	1000.0000   	TCV 	100.0000    	0.0000      	;
 ~@AV-172        	I-AV-172        	O-AV-172        	1000.0000   	TCV 	100.0000    	0.0000      	;
 ~@AV-173        	I-AV-173        	O-AV-173        	1000.0000   	TCV 	100.0000    	0.0000      	;
 ~@AV-174        	I-AV-174        	O-AV-174        	1000.0000   	TCV 	100.0000    	0.0000      	;
 ~@AV-175        	I-AV-175        	O-AV-175        	1000.0000   	TCV 	100.0000    	0.0000      	;
 ~@AV-176        	I-AV-176        	O-AV-176        	1000.0000   	TCV 	100.0000    	0.0000      	;
 ~@AV-177        	I-AV-177        	O-AV-177        	1000.0000   	TCV 	100.0000    	0.0000      	;
 ~@AV-178        	I-AV-178        	O-AV-178        	1000.0000   	TCV 	100.0000    	0.0000      	;
 ~@AV-179        	I-AV-179        	O-AV-179        	1000.0000   	TCV 	100.0000    	0.0000      	;
 ~@AV-18         	I-AV-18         	O-AV-18         	1000.0000   	TCV 	100.0000    	0.0000      	;
 ~@AV-180        	I-AV-180        	O-AV-180        	1000.0000   	TCV 	100.0000    	0.0000      	;
 ~@AV-181        	I-AV-181        	O-AV-181        	1000.0000   	TCV 	100.0000    	0.0000      	;
 ~@AV-182        	I-AV-182        	O-AV-182        	1000.0000   	TCV 	100.0000    	0.0000      	;
 ~@AV-183        	I-AV-183        	O-AV-183        	1000.0000   	TCV 	100.0000    	0.0000      	;
 ~@AV-184        	I-AV-184        	O-AV-184        	1000.0000   	TCV 	100.0000    	0.0000      	;
 ~@AV-185        	I-AV-185        	O-AV-185        	1000.0000   	TCV 	100.0000    	0.0000      	;
 ~@AV-186        	I-AV-186        	O-AV-186        	1000.0000   	TCV 	100.0000    	0.0000      	;
 ~@AV-187        	I-AV-187        	O-AV-187        	1000.0000   	TCV 	100.0000    	0.0000      	;
 ~@AV-188        	I-AV-188        	O-AV-188        	1000.0000   	TCV 	100.0000    	0.0000      	;
 ~@AV-189        	I-AV-189        	O-AV-189        	1000.0000   	TCV 	100.0000    	0.0000      	;
 ~@AV-19         	I-AV-19         	O-AV-19         	1000.0000   	TCV 	100.0000    	0.0000      	;
 ~@AV-190        	I-AV-190        	O-AV-190        	1000.0000   	TCV 	100.0000    	0.0000      	;
 ~@AV-191        	I-AV-191        	O-AV-191        	1000.0000   	TCV 	100.0000    	0.0000      	;
 ~@AV-192        	I-AV-192        	O-AV-192        	1000.0000   	TCV 	100.0000    	0.0000      	;
 ~@AV-193        	I-AV-193        	O-AV-193        	1000.0000   	TCV 	100.0000    	0.0000      	;
 ~@AV-194        	I-AV-194        	O-AV-194        	1000.0000   	TCV 	100.0000    	0.0000      	;
 ~@AV-195        	I-AV-195        	O-AV-195        	1000.0000   	TCV 	100.0000    	0.0000      	;
 ~@AV-196        	I-AV-196        	O-AV-196        	1000.0000   	TCV 	100.0000    	0.0000      	;
 ~@AV-197        	I-AV-197        	O-AV-197        	1000.0000   	TCV 	100.0000    	0.0000      	;
 ~@AV-198        	I-AV-198        	O-AV-198        	1000.0000   	TCV 	100.0000    	0.0000      	;
 ~@AV-199        	I-AV-199        	O-AV-199        	1000.0000   	TCV 	100.0000    	0.0000      	;
 ~@AV-2          	I-AV-2          	O-AV-2          	1000.0000   	TCV 	100.0000    	0.0000      	;
 ~@AV-20         	I-AV-20         	O-AV-20         	1000.0000   	TCV 	100.0000    	0.0000      	;
 ~@AV-200        	I-AV-200        	O-AV-200        	1000.0000   	TCV 	100.0000    	0.0000      	;
 ~@AV-201        	I-AV-201        	O-AV-201        	1000.0000   	TCV 	100.0000    	0.0000      	;
 ~@AV-202        	I-AV-202        	O-AV-202        	1000.0000   	TCV 	100.0000    	0.0000      	;
 ~@AV-203        	I-AV-203        	O-AV-203        	1000.0000   	TCV 	100.0000    	0.0000      	;
 ~@AV-204        	I-AV-204        	O-AV-204        	1000.0000   	TCV 	100.0000    	0.0000      	;
 ~@AV-21         	I-AV-21         	O-AV-21         	1000.0000   	TCV 	100.0000    	0.0000      	;
 ~@AV-22         	I-AV-22         	O-AV-22         	1000.0000   	TCV 	100.0000    	0.0000      	;
 ~@AV-23         	I-AV-23         	O-AV-23         	1000.0000   	TCV 	100.0000    	0.0000      	;
 ~@AV-24         	I-AV-24         	O-AV-24         	1000.0000   	TCV 	100.0000    	0.0000      	;
 ~@AV-25         	I-AV-25         	O-AV-25         	1000.0000   	TCV 	100.0000    	0.0000      	;
 ~@AV-26         	I-AV-26         	O-AV-26         	1000.0000   	TCV 	100.0000    	0.0000      	;
 ~@AV-27         	I-AV-27         	O-AV-27         	1000.0000   	TCV 	100.0000    	0.0000      	;
 ~@AV-28         	I-AV-28         	O-AV-28         	1000.0000   	TCV 	100.0000    	0.0000      	;
 ~@AV-29         	I-AV-29         	O-AV-29         	1000.0000   	TCV 	100.0000    	0.0000      	;
 ~@AV-3          	I-AV-3          	O-AV-3          	1000.0000   	TCV 	100.0000    	0.0000      	;
 ~@AV-30         	I-AV-30         	O-AV-30         	1000.0000   	TCV 	100.0000    	0.0000      	;
 ~@AV-31         	I-AV-31         	O-AV-31         	1000.0000   	TCV 	100.0000    	0.0000      	;
 ~@AV-32         	I-AV-32         	O-AV-32         	1000.0000   	TCV 	100.0000    	0.0000      	;
 ~@AV-33         	I-AV-33         	O-AV-33         	1000.0000   	TCV 	100.0000    	0.0000      	;
 ~@AV-34         	I-AV-34         	O-AV-34         	1000.0000   	TCV 	100.0000    	0.0000      	;
 ~@AV-35         	I-AV-35         	O-AV-35         	1000.0000   	TCV 	100.0000    	0.0000      	;
 ~@AV-36         	I-AV-36         	O-AV-36         	1000.0000   	TCV 	100.0000    	0.0000      	;
 ~@AV-37         	I-AV-37         	O-AV-37         	1000.0000   	TCV 	100.0000    	0.0000      	;
 ~@AV-38         	I-AV-38         	O-AV-38         	1000.0000   	TCV 	100.0000    	0.0000      	;
 ~@AV-39         	I-AV-39         	O-AV-39         	1000.0000   	TCV 	100.0000    	0.0000      	;
 ~@AV-4          	I-AV-4          	O-AV-4          	1000.0000   	TCV 	100.0000    	0.0000      	;
 ~@AV-40         	I-AV-40         	O-AV-40         	1000.0000   	TCV 	100.0000    	0.0000      	;
 ~@AV-41         	I-AV-41         	O-AV-41         	1000.0000   	TCV 	100.0000    	0.0000      	;
 ~@AV-42         	I-AV-42         	O-AV-42         	1000.0000   	TCV 	100.0000    	0.0000      	;
 ~@AV-43         	I-AV-43         	O-AV-43         	1000.0000   	TCV 	100.0000    	0.0000      	;
 ~@AV-44         	I-AV-44         	O-AV-44         	1000.0000   	TCV 	100.0000    	0.0000      	;
 ~@AV-45         	I-AV-45         	O-AV-45         	1000.0000   	TCV 	100.0000    	0.0000      	;
 ~@AV-46         	I-AV-46         	O-AV-46         	1000.0000   	TCV 	100.0000    	0.0000      	;
 ~@AV-47         	I-AV-47         	O-AV-47         	1000.0000   	TCV 	100.0000    	0.0000      	;
 ~@AV-48         	I-AV-48         	O-AV-48         	1000.0000   	TCV 	100.0000    	0.0000      	;
 ~@AV-49         	I-AV-49         	O-AV-49         	1000.0000   	TCV 	100.0000    	0.0000      	;
 ~@AV-5          	I-AV-5          	O-AV-5          	1000.0000   	TCV 	100.0000    	0.0000      	;
 ~@AV-50         	I-AV-50         	O-AV-50         	1000.0000   	TCV 	100.0000    	0.0000      	;
 ~@AV-51         	I-AV-51         	O-AV-51         	1000.0000   	TCV 	100.0000    	0.0000      	;
 ~@AV-52         	I-AV-52         	O-AV-52         	1000.0000   	TCV 	100.0000    	0.0000      	;
 ~@AV-53         	I-AV-53         	O-AV-53         	1000.0000   	TCV 	100.0000    	0.0000      	;
 ~@AV-54         	I-AV-54         	O-AV-54         	1000.0000   	TCV 	100.0000    	0.0000      	;
 ~@AV-55         	I-AV-55         	O-AV-55         	1000.0000   	TCV 	100.0000    	0.0000      	;
 ~@AV-56         	I-AV-56         	O-AV-56         	1000.0000   	TCV 	100.0000    	0.0000      	;
 ~@AV-57         	I-AV-57         	O-AV-57         	1000.0000   	TCV 	100.0000    	0.0000      	;
 ~@AV-58         	I-AV-58         	O-AV-58         	1000.0000   	TCV 	100.0000    	0.0000      	;
 ~@AV-59         	I-AV-59         	O-AV-59         	1000.0000   	TCV 	100.0000    	0.0000      	;
 ~@AV-6          	I-AV-6          	O-AV-6          	1000.0000   	TCV 	100.0000    	0.0000      	;
 ~@AV-60         	I-AV-60         	O-AV-60         	1000.0000   	TCV 	100.0000    	0.0000      	;
 ~@AV-61         	I-AV-61         	O-AV-61         	1000.0000   	TCV 	100.0000    	0.0000      	;
 ~@AV-62         	I-AV-62         	O-AV-62         	1000.0000   	TCV 	100.0000    	0.0000      	;
 ~@AV-63         	I-AV-63         	O-AV-63         	1000.0000   	TCV 	100.0000    	0.0000      	;
 ~@AV-64         	I-AV-64         	O-AV-64         	1000.0000   	TCV 	100.0000    	0.0000      	;
 ~@AV-65         	I-AV-65         	O-AV-65         	1000.0000   	TCV 	100.0000    	0.0000      	;
 ~@AV-66         	I-AV-66         	O-AV-66         	1000.0000   	TCV 	100.0000    	0.0000      	;
 ~@AV-67         	I-AV-67         	O-AV-67         	1000.0000   	TCV 	100.0000    	0.0000      	;
 ~@AV-68         	I-AV-68         	O-AV-68         	1000.0000   	TCV 	100.0000    	0.0000      	;
 ~@AV-69         	I-AV-69         	O-AV-69         	1000.0000   	TCV 	100.0000    	0.0000      	;
 ~@AV-7          	I-AV-7          	O-AV-7          	1000.0000   	TCV 	100.0000    	0.0000      	;
 ~@AV-70         	I-AV-70         	O-AV-70         	1000.0000   	TCV 	100.0000    	0.0000      	;
 ~@AV-71         	I-AV-71         	O-AV-71         	1000.0000   	TCV 	100.0000    	0.0000      	;
 ~@AV-72         	I-AV-72         	O-AV-72         	1000.0000   	TCV 	100.0000    	0.0000      	;
 ~@AV-73         	I-AV-73         	O-AV-73         	1000.0000   	TCV 	100.0000    	0.0000      	;
 ~@AV-74         	I-AV-74         	O-AV-74         	1000.0000   	TCV 	100.0000    	0.0000      	;
 ~@AV-75         	I-AV-75         	O-AV-75         	1000.0000   	TCV 	100.0000    	0.0000      	;
 ~@AV-76         	I-AV-76         	O-AV-76         	1000.0000   	TCV 	100.0000    	0.0000      	;
 ~@AV-77         	I-AV-77         	O-AV-77         	1000.0000   	TCV 	100.0000    	0.0000      	;
 ~@AV-78         	I-AV-78         	O-AV-78         	1000.0000   	TCV 	100.0000    	0.0000      	;
 ~@AV-79         	I-AV-79         	O-AV-79         	1000.0000   	TCV 	100.0000    	0.0000      	;
 ~@AV-8          	I-AV-8          	O-AV-8          	1000.0000   	TCV 	100.0000    	0.0000      	;
 ~@AV-80         	I-AV-80         	O-AV-80         	1000.0000   	TCV 	100.0000    	0.0000      	;
 ~@AV-81         	I-AV-81         	O-AV-81         	1000.0000   	TCV 	100.0000    	0.0000      	;
 ~@AV-82         	I-AV-82         	O-AV-82         	1000.0000   	TCV 	100.0000    	0.0000      	;
 ~@AV-83         	I-AV-83         	O-AV-83         	1000.0000   	TCV 	100.0000    	0.0000      	;
 ~@AV-84         	I-AV-84         	O-AV-84         	1000.0000   	TCV 	100.0000    	0.0000      	;
 ~@AV-85         	I-AV-85         	O-AV-85         	1000.0000   	TCV 	100.0000    	0.0000      	;
 ~@AV-86         	I-AV-86         	O-AV-86         	1000.0000   	TCV 	100.0000    	0.0000      	;
 ~@AV-87         	I-AV-87         	O-AV-87         	1000.0000   	TCV 	100.0000    	0.0000      	;
 ~@AV-88         	I-AV-88         	O-AV-88         	1000.0000   	TCV 	100.0000    	0.0000      	;
 ~@AV-89         	I-AV-89         	O-AV-89         	1000.0000   	TCV 	100.0000    	0.0000      	;
 ~@AV-9          	I-AV-9          	O-AV-9          	1000.0000   	TCV 	100.0000    	0.0000      	;
 ~@AV-90         	I-AV-90         	O-AV-90         	1000.0000   	TCV 	100.0000    	0.0000      	;
 ~@AV-91         	I-AV-91         	O-AV-91         	1000.0000   	TCV 	100.0000    	0.0000      	;
 ~@AV-92         	I-AV-92         	O-AV-92         	1000.0000   	TCV 	100.0000    	0.0000      	;
 ~@AV-93         	I-AV-93         	O-AV-93         	1000.0000   	TCV 	100.0000    	0.0000      	;
 ~@AV-94         	I-AV-94         	O-AV-94         	1000.0000   	TCV 	100.0000    	0.0000      	;
 ~@AV-95         	I-AV-95         	O-AV-95         	1000.0000   	TCV 	100.0000    	0.0000      	;
 ~@AV-96         	I-AV-96         	O-AV-96         	1000.0000   	TCV 	100.0000    	0.0000      	;
 ~@AV-97         	I-AV-97         	O-AV-97         	1000.0000   	TCV 	100.0000    	0.0000      	;
 ~@AV-98         	I-AV-98         	O-AV-98         	1000.0000   	TCV 	100.0000    	0.0000      	;
 ~@AV-99         	I-AV-99         	O-AV-99         	1000.0000   	TCV 	100.0000    	0.0000      	;

[TAGS]

[DEMANDS]
;Junction        	Demand      	Pattern         	Category

[STATUS]
;ID              	Status/Setting

[PATTERNS]
;ID              	Multipliers
;
 1               	1.0000      	0.2500      	0.2090      	0.2090      	0.2590      	0.3600      
 1               	0.5290      	0.9100      	1.2000      	1.2990      	1.3400      	1.3400      
 1               	1.3200      	1.2690      	1.2500      	1.2500      	1.2790      	1.3700      
 1               	1.5190      	1.7000      	1.7500      	1.6690      	0.8990      	0.4790      
 1               	0.3300      	0.2500      	0.2090      	0.2090      	0.2590      	0.3600      
 1               	0.5290      	0.9100      	1.2000      	1.2990      	1.3400      	1.3400      
 1               	1.3200      	1.2690      	1.2500      	1.2500      	1.2790      	1.3700      
 1               	1.5190      	1.7000      	1.7500      	1.6690      	0.8990      	0.4790      
 1               	0.3300      	0.2500      	0.2090      	0.2090      	0.2590      	0.3600      
 1               	0.5290      	0.9100      	1.2000      	1.2990      	1.3400      	1.3400      
 1               	1.3200      	1.2690      	1.2500      	1.2500      	1.2790      	1.3700      
 1               	1.5190      	1.7000      	1.7500      	1.6690      	0.8990      	0.4790      
 1               	0.3300      	0.2500      	0.2090      	0.2090      	0.2590      	0.3600      
 1               	0.5290      	0.9100      	1.2000      	1.2990      	1.3400      	1.3400      
 1               	1.3200      	1.2690      	1.2500      	1.2500      	1.2790      	1.3700      
 1               	1.5190      	1.7000      	1.7500      	1.6690      	0.8990      	0.4790      
 1               	0.3300      	0.2500      	0.2090      	0.2090      	0.2590      	0.3600      
 1               	0.5290      	0.9100      	1.2000      	1.2990      	1.3400      	1.3400      
 1               	1.3200      	1.2690      	1.2500      	1.2500      	1.2790      	1.3700      
 1               	1.5190      	1.7000      	1.7500      	1.6690      	0.8990      	0.4790      
 1               	0.3300      	0.2500      	0.2090      	0.2090      	0.2590      	0.3600      
 1               	0.5290      	0.9100      	1.2000      	1.2990      	1.3400      	1.3400      
 1               	1.3200      	1.2690      	1.2500      	1.2500      	1.2790      	1.3700      
 1               	1.5190      	1.7000      	1.7500      	1.6690      	0.8990      	0.4790      
 1               	0.3300      	0.2500      	0.2090      	0.2090      	0.2590      	0.3600      
 1               	0.5290      	0.9100      	1.2000      	1.2990      	1.3400      	1.3400      
 1               	1.3200      	1.2690      	1.2500      	1.2500      	1.2790      	1.3700      
 1               	1.5190      	1.7000      	1.7500      	1.6690      	0.8990      	0.4790      
 1               	0.3300      	0.2500      	0.2090      	0.2090      	0.2590      	0.3600      
 1               	0.5290      	0.9100      	1.2000      	1.2990      	1.3400      	1.3400      
 1               	1.3200      	1.2690      	1.2500      	1.2500      	1.2790      	1.3700      
 1               	1.5190      	1.7000      	1.7500      	1.6690      	0.8990      	0.4790      
;
 11              	1.0000      
;
 ENRG1           	1.0000      	1.0000      	1.0000      	1.0000      	1.0000      	1.0000      
 ENRG1           	1.0000      	1.0000      	1.0000      	1.0000      	1.0000      	1.0000      
 ENRG1           	1.0000      	1.0000      	1.0000      	1.0000      	1.0000      	1.0000      
 ENRG1           	1.0000      	1.0000      	1.0000      	1.0000      	1.0000      	1.0000      
 ENRG1           	1.0000      	1.0000      	1.0000      	1.0000      	1.0000      	1.0000      
 ENRG1           	1.0000      	1.0000      	1.0000      	1.0000      	1.0000      	1.0000      
 ENRG1           	1.0000      	1.0000      	1.0000      	1.0000      	1.0000      	1.0000      
 ENRG1           	1.0000      	1.0000      	1.0000      	1.0000      	1.0000      	1.0000      
 ENRG1           	1.0000      	1.0000      	1.0000      	1.0000      	1.0000      	1.0000      
 ENRG1           	1.0000      	1.0000      	1.0000      	1.0000      	1.0000      	1.0000      
 ENRG1           	1.0000      	1.0000      	1.0000      	1.0000      	1.0000      	1.0000      
 ENRG1           	1.0000      	1.0000      	1.0000      	1.0000      	1.0000      	1.0000      
 ENRG1           	1.0000      	1.0000      	1.0000      	1.0000      	1.0000      	1.0000      
 ENRG1           	1.0000      	1.0000      	1.0000      	1.0000      	1.0000      	1.0000      
 ENRG1           	1.0000      	1.0000      	1.0000      	1.0000      	1.0000      	1.0000      
 ENRG1           	1.0000      	1.0000      	1.0000      	1.0000      	1.0000      	1.0000      
 ENRG1           	1.0000      	1.0000      	1.0000      	1.0000      	1.0000      	1.0000      
 ENRG1           	1.0000      	1.0000      	1.0000      	1.0000      	1.0000      	1.0000      
 ENRG1           	1.0000      	1.0000      	1.0000      	1.0000      	1.0000      	1.0000      
 ENRG1           	1.0000      	1.0000      	1.0000      	1.0000      	1.0000      	1.0000      
 ENRG1           	1.0000      	1.0000      	1.0000      	1.0000      	1.0000      	1.0000      
 ENRG1           	1.0000      	1.0000      	1.0000      	1.0000      	1.0000      	1.0000      
 ENRG1           	1.0000      	1.0000      	1.0000      	1.0000      	1.0000      	1.0000      
 ENRG1           	1.0000      	1.0000      	1.0000      	1.0000      	1.0000      	1.0000      
 ENRG1           	1.0000      	1.0000      	1.0000      	1.0000      	1.0000      	1.0000      
 ENRG1           	1.0000      	1.0000      	1.0000      	1.0000      	1.0000      	1.0000      
 ENRG1           	1.0000      	1.0000      	1.0000      	1.0000      	1.0000      	1.0000      
 ENRG1           	1.0000      	1.0000      	1.0000      	1.0000      	1.0000      	1.0000      
 ENRG1           	1.0000      	1.0000      	1.0000      	1.0000      	1.0000      	1.0000      
 ENRG1           	1.0000      	1.0000      	1.0000      	1.0000      	1.0000      	1.0000      
 ENRG1           	1.0000      	1.0000      	1.0000      	1.0000      	1.0000      	1.0000      
 ENRG1           	1.0000      	1.0000      	1.0000      	1.0000      	1.0000      	1.0000      
 ENRG1           	1.0000      	1.0000      	1.0000      	1.0000      	1.0000      	1.0000      
 ENRG1           	1.0000      	1.0000      	1.0000      	1.0000      	1.0000      

[CURVES]
;ID              	X-Value     	Y-Value

[CONTROLS]







[RULES]






[ENERGY]
 Global Efficiency  	75.0000
 Global Price       	0
 Demand Charge      	0.0000

[EMITTERS]
;Junction        	Coefficient

[QUALITY]
;Node            	InitQual
 O-AV-1          	42.064228
 O-AV-10         	48.000000
 O-AV-100        	19.915733
 O-AV-101        	19.259169
 O-AV-102        	23.267715
 O-AV-103        	34.371895
 O-AV-104        	45.097794
 I-AV-105        	48.000000
 O-AV-106        	190.257156
 O-AV-107        	11.150856
 O-AV-108        	11.252760
 I-AV-109        	63.048981
 O-AV-11         	122.749123
 I-AV-110        	40.711796
 I-AV-111        	14.117692
 I-AV-112        	13.439015
 I-AV-113        	24.524372
 I-AV-114        	20.074432
 I-AV-115        	15.335703
 I-AV-116        	17.128559
 I-AV-117        	40.675220
 O-AV-118        	11.479365
 O-AV-119        	9.559842
 O-AV-12         	20.355633
 I-AV-120        	10.996334
 O-AV-121        	10.696608
 I-AV-122        	8.399755
 I-AV-123        	7.620853
 I-AV-124        	10.628607
 O-AV-125        	6.966117
 I-AV-126        	8.393077
 I-AV-127        	13.358665
 I-AV-128        	6.759048
 O-AV-129        	90.828163
 O-AV-13         	35.796211
 O-AV-130        	34.153210
 I-AV-131        	20.101152
 I-AV-132        	23.048862
 O-AV-133        	30.282444
 O-AV-134        	32.899582
 O-AV-135        	31.236259
 O-AV-136        	29.400444
 I-AV-137        	8.882998
 O-AV-138        	34.024574
 I-AV-139        	19.945532
 O-AV-14         	44.288208
 O-AV-140        	33.674850
 O-AV-141        	9.365379
 O-AV-142        	40.409016
 O-AV-143        	41.730404
 O-AV-144        	39.535328
 I-AV-145        	48.000000
 O-AV-146        	39.959347
 O-AV-147        	37.254292
 O-AV-148        	48.917656
 O-AV-149        	48.382912
 O-AV-15         	25.094713
 I-AV-150        	57.393661
 O-AV-151        	45.632664
 O-AV-152        	51.909683
 O-AV-153        	57.682369
 I-AV-154        	30.788731
 O-AV-155        	45.313107
 O-AV-156        	98.152679
 O-AV-157        	16.109690
 O-AV-158        	15.644347
 I-AV-159        	12.428870
 O-AV-16         	23.598391
 I-AV-160        	8.799563
 O-AV-161        	64.868568
 I-AV-162        	39.847725
 I-AV-163        	13.495476
 I-AV-164        	13.394603
 I-AV-165        	12.854443
 O-AV-166        	13.534778
 O-AV-167        	64.711273
 O-AV-168        	14.813724
 O-AV-169        	12.326674
 I-AV-17         	26.455820
 O-AV-170        	13.862405
 O-AV-171        	13.610168
 O-AV-172        	13.556843
 I-AV-173        	25.678289
 O-AV-174        	14.623151
 I-AV-175        	15.534401
 O-AV-176        	12.437243
 O-AV-177        	36.153183
 O-AV-178        	48.000000
 I-AV-179        	13.689261
 O-AV-18         	36.314362
 O-AV-180        	13.688455
 O-AV-181        	14.784290
 I-AV-182        	12.296874
 I-AV-183        	12.178017
 I-AV-184        	12.014776
 I-AV-185        	11.842976
 I-AV-186        	11.721148
 I-AV-187        	11.939833
 I-AV-188        	12.364044
 O-AV-189        	171.102493
 I-AV-19         	22.481842
 I-AV-190        	12.645224
 I-AV-191        	13.303569
 O-AV-192        	13.509803
 I-AV-193        	42.725967
 I-AV-194        	24.164257
 I-AV-195        	78.971443
 O-AV-196        	31.282322
 I-AV-197        	34.150093
 O-AV-198        	20.973278
 I-AV-199        	29.359434
 O-AV-2          	61.823921
 I-AV-20         	19.938429
 O-AV-200        	26.543549
 O-AV-201        	18.492086
 O-AV-202        	37.155277
 I-AV-203        	81.262383
 I-AV-204        	165.566925
 I-AV-21         	13.983423
 I-AV-22         	13.435236
 I-AV-23         	48.000000
 I-AV-24         	48.000000
 I-AV-25         	39.000946
 I-AV-26         	13.729155
 I-AV-27         	15.478017
 I-AV-28         	14.301650
 I-AV-29         	15.291967
 I-AV-3          	117.250954
 I-AV-30         	14.179608
 I-AV-31         	14.199099
 I-AV-32         	15.108047
 I-AV-33         	15.039622
 I-AV-34         	17.240246
 I-AV-35         	17.375732
 O-AV-36         	38.781738
 I-AV-37         	48.000000
 O-AV-38         	16.154608
 I-AV-39         	19.423716
 O-AV-4          	183.089172
 I-AV-40         	37.136814
 O-AV-41         	84.586708
 O-AV-42         	48.000000
 O-AV-43         	7.329864
 O-AV-44         	3.017904
 I-AV-45         	48.000000
 I-AV-46         	2.853962
 O-AV-47         	91.321426
 O-AV-48         	7.087339
 O-AV-49         	9.241549
 I-AV-5          	55.406315
 O-AV-50         	9.090134
 I-AV-51         	7.974285
 I-AV-52         	8.642381
 I-AV-53         	8.586954
 O-AV-54         	8.516196
 O-AV-55         	8.568389
 O-AV-56         	9.143318
 I-AV-57         	9.541815
 O-AV-58         	36.319298
 O-AV-59         	9.541815
 I-AV-6          	56.522362
 I-AV-60         	8.755242
 O-AV-61         	12.797869
 O-AV-62         	14.181885
 I-AV-63         	30.129107
 I-AV-64         	75.893623
 I-AV-65         	141.255432
 I-AV-66         	13.578287
 I-AV-67         	38.656994
 O-AV-68         	84.372025
 O-AV-69         	26.149336
 I-AV-7          	135.418930
 O-AV-70         	13.950923
 I-AV-71         	25.826475
 O-AV-72         	14.445209
 I-AV-73         	13.994085
 I-AV-74         	102.798172
 O-AV-75         	27.375280
 O-AV-76         	44.102798
 I-AV-77         	44.030376
 I-AV-78         	48.000000
 O-AV-79         	15.653815
 I-AV-8          	61.986469
 I-AV-80         	21.737223
 I-AV-81         	56.596737
 I-AV-82         	142.717911
 I-AV-83         	13.158038
 I-AV-84         	18.643244
 O-AV-85         	68.599762
 I-AV-86         	111.278061
 I-AV-87         	55.540115
 O-AV-88         	60.873695
 I-AV-89         	55.606777
 I-AV-9          	48.000000
 O-AV-90         	59.069271
 O-AV-91         	48.049801
 O-AV-92         	51.692966
 O-AV-93         	26.927309
 I-AV-94         	25.478437
 I-AV-95         	33.275948
 I-AV-96         	32.463615
 I-AV-97         	35.404606
 O-AV-98         	19.107534
 I-AV-99         	20.487410
 I-Big_Branch_1  	32.998798
 I-Big_Branch_2  	65.250046
 O-Bowens_Creek  	14.009852
 I-Bowling_Br    	31.129770
 I-Essie         	17.410608
 O-Flackey_Branch	9.043347
 I-Glady_Branch  	16.386349
 O-High_Service  	0.083333
 I-Honey_Suckle  	41.070786
 I-Hospital_Hilla	22.083712
 O-Hurts_Creeka  	9.508874
 I-Hyden_Spura   	17.212811
 J-1             	48.000000
 J-10            	13.458217
 J-100           	38.698860
 J-101           	21.466866
 J-102           	52.049290
 J-103           	49.606796
 J-104           	18.684723
 J-105           	18.378218
 J-106           	13.609926
 J-107           	13.780600
 J-108           	17.353939
 J-109           	19.590946
 J-11            	48.000000
 J-110           	9.272461
 J-111           	9.049624
 J-112           	12.457184
 J-113           	13.373407
 J-114           	11.712875
 J-115           	36.307384
 J-116           	12.426489
 J-117           	13.159416
 J-118           	48.000000
 J-119           	14.164552
 J-12            	137.116760
 J-120           	14.659714
 J-121           	15.091296
 J-122           	36.768112
 J-123           	56.420742
 J-124           	15.774822
 J-125           	21.165169
 J-126           	19.764591
 J-127           	10.587388
 J-128           	19.277500
 J-129           	18.800573
 J-13            	33.127056
 J-130           	26.448257
 J-131           	2.936450
 J-132           	7.731878
 J-133           	26.327301
 J-134           	13.426344
 J-135           	14.561698
 J-136           	8.349248
 J-137           	9.366033
 J-138           	9.316805
 J-139           	2.775223
 J-14            	32.187668
 J-140           	9.419171
 J-141           	13.460002
 J-142           	65.855263
 J-143           	49.821186
 J-144           	45.203949
 J-145           	41.366508
 J-146           	9.893616
 J-147           	8.813087
 J-148           	48.000000
 J-149           	48.000000
 J-15            	32.621239
 J-150           	109.559662
 J-151           	10.802615
 J-152           	15.364388
 J-153           	14.177493
 J-154           	15.554731
 J-155           	16.160061
 J-156           	13.338272
 J-157           	42.074738
 J-158           	10.729449
 J-159           	26.152264
 J-16            	40.156475
 J-160           	7.071764
 J-162           	8.768381
 J-163           	8.722785
 J-164           	10.574305
 J-165           	9.486515
 J-166           	10.569280
 J-167           	8.421161
 J-168           	17.126390
 J-169           	59.260487
 J-17            	71.635887
 J-170           	48.000000
 J-171           	9.163292
 J-172           	30.528454
 J-173           	28.671301
 J-174           	6.578511
 J-175           	7.496303
 J-176           	6.445202
 J-177           	33.557453
 J-178           	15.458488
 J-179           	30.144283
 J-18            	71.125397
 J-180           	23.937693
 J-181           	18.092810
 J-182           	32.623970
 J-183           	47.418175
 J-184           	70.314781
 J-185           	32.092640
 J-186           	19.297979
 J-187           	32.071945
 J-189           	7.848112
 J-19            	48.000000
 J-191           	20.251656
 J-192           	18.455994
 J-193           	15.601199
 J-194           	39.689579
 J-195           	49.642105
 J-196           	49.373520
 J-197           	31.765856
 J-198           	53.817654
 J-199           	74.727844
 J-2             	18.495687
 J-20            	182.879898
 J-200           	26.196192
 J-201           	81.503708
 J-202           	12.676496
 J-203           	155.471878
 J-204           	20.521591
 J-205           	20.789654
 J-206           	23.791824
 J-207           	62.499523
 J-208           	81.326797
 J-209           	47.788826
 J-21            	35.314121
 J-210           	46.066696
 J-212           	15.148440
 J-213           	11.094495
 J-214           	13.821169
 J-215           	52.393749
 J-216           	24.438425
 J-217           	12.759480
 J-218           	9.429662
 J-219           	24.434381
 J-22            	38.161808
 J-220           	54.543167
 J-221           	14.185328
 J-222           	7.771768
 J-223           	73.245636
 J-224           	19.406067
 J-225           	48.000000
 J-226           	48.000000
 J-227           	19.160196
 J-228           	14.518950
 J-229           	13.945739
 J-23            	129.072815
 J-230           	36.926109
 J-231           	16.175386
 J-232           	9.286899
 J-233           	19.666403
 J-234           	48.000000
 J-235           	24.491156
 J-236           	33.449299
 J-237           	20.045849
 J-238           	15.160615
 J-239           	26.554325
 J-24            	185.766495
 J-240           	48.000000
 J-241           	31.026979
 J-242           	19.846584
 J-243           	67.985977
 J-244           	32.627453
 J-245           	54.834206
 J-246           	14.022412
 J-247           	81.911613
 J-248           	12.334903
 J-249           	36.603363
 J-25            	13.668191
 J-250           	51.118099
 J-251           	9.701556
 J-252           	83.850395
 J-253           	16.076147
 J-254           	34.130970
 J-255           	43.470394
 J-256           	69.501396
 J-257           	32.443848
 J-258           	48.000000
 J-259           	86.401398
 J-26            	13.573522
 J-260           	48.066433
 J-261           	37.813099
 J-262           	14.358699
 J-263           	27.983521
 J-265           	19.596710
 J-266           	19.928837
 J-267           	48.239895
 J-268           	57.499989
 J-27            	13.644578
 J-270           	21.660089
 J-271           	23.063519
 J-272           	15.007803
 J-273           	19.756748
 J-274           	50.243290
 J-275           	65.383469
 J-276           	23.202833
 J-277           	19.949654
 J-278           	35.039730
 J-279           	114.346054
 J-28            	48.000000
 J-280           	9.354568
 J-281           	42.045521
 J-282           	19.873232
 J-283           	20.043190
 J-284           	18.040352
 J-285           	36.826641
 J-286           	18.879280
 J-287           	51.057259
 J-288           	59.395550
 J-289           	95.181969
 J-29            	38.284550
 J-290           	32.462666
 J-291           	36.174110
 J-292           	20.442724
 J-293           	15.024158
 J-294           	167.708755
 J-295           	168.980667
 J-296           	120.304237
 J-297           	48.000000
 J-298           	128.901260
 J-299           	48.000000
 J-3             	17.223392
 J-30            	41.707779
 J-300           	37.719517
 J-301           	146.637924
 J-302           	10.341251
 J-303           	8.521693
 J-304           	13.552258
 J-305           	30.992847
 J-306           	48.000000
 J-307           	23.726646
 J-308           	38.348171
 J-309           	27.466875
 J-31            	25.590231
 J-310           	34.629871
 J-311           	40.248539
 J-312           	13.451248
 J-313           	12.148993
 J-314           	13.224559
 J-315           	13.013354
 J-316           	14.181120
 J-317           	8.690279
 J-318           	42.683762
 J-319           	67.595177
 J-32            	24.113539
 J-320           	73.821327
 J-321           	23.665617
 J-322           	20.911232
 J-323           	23.544828
 J-324           	77.751572
 J-325           	57.359539
 J-326           	2.697151
 J-327           	48.000000
 J-328           	48.000000
 J-329           	9.606910
 J-33            	15.015754
 J-330           	20.249519
 J-331           	15.067171
 J-332           	48.000000
 J-333           	8.317984
 J-334           	118.996994
 J-335           	39.421284
 J-336           	18.821432
 J-337           	34.644100
 J-338           	25.285086
 J-339           	46.290749
 J-34            	14.507782
 J-340           	31.454094
 J-341           	35.920769
 J-343           	7.024304
 J-344           	6.571358
 J-345           	20.582945
 J-347           	26.710917
 J-35            	13.783961
 J-36            	19.132483
 J-37            	13.427387
 J-38            	69.002129
 J-39            	55.768250
 J-4             	83.194397
 J-40            	8.304886
 J-41            	8.465021
 J-42            	65.744370
 J-43            	107.129349
 J-44            	9.162105
 J-45            	13.521331
 J-46            	14.574238
 J-47            	38.588860
 J-48            	33.671207
 J-49            	33.874622
 J-5             	48.000000
 J-50            	40.754665
 J-51            	60.551987
 J-52            	7.899272
 J-53            	8.204055
 J-54            	15.588200
 J-55            	15.780095
 J-56            	13.233493
 J-57            	51.962612
 J-58            	50.707973
 J-59            	13.595903
 J-6             	86.896545
 J-60            	36.836922
 J-61            	26.140646
 J-62            	15.310163
 J-63            	14.219519
 J-64            	50.095226
 J-65            	15.630272
 J-66            	15.537464
 J-67            	8.222116
 J-68            	8.642141
 J-69            	14.275513
 J-7             	22.609783
 J-70            	101.238060
 J-71            	13.606313
 J-72            	35.340038
 J-73            	21.798870
 J-74            	48.000000
 J-75            	8.924476
 J-76            	8.553675
 J-77            	48.000000
 J-78            	196.914703
 J-79            	50.085403
 J-8             	26.217230
 J-80            	49.435398
 J-81            	41.548241
 J-82            	68.721222
 J-83            	13.736180
 J-84            	12.304296
 J-85            	16.085461
 J-86            	14.249573
 J-87            	17.290991
 J-88            	17.134792
 J-89            	16.829821
 J-9             	13.686065
 J-90            	21.243307
 J-91            	17.199188
 J-92            	17.259212
 J-93            	17.154779
 J-94            	158.956787
 J-95            	13.911658
 J-96            	61.340569
 J-97            	18.160242
 J-98            	36.826969
 J-99            	14.753935
 O-Lower_Bad_Creek	10.113711
 I-Muncy_Creeka  	6.489502
 O-Owls_Nesta    	20.416559
 O-Polls_Creek_1 	51.503109
 O-Polls_Creek_2 	22.185860
 I-Rockhousea    	14.611680
 I-Wilder_Branch 	36.218266
 I-Wolfe_Creeka  	41.035751
 O-Wooton_Mountain	15.464308
 I-AV-1          	42.048168
 I-AV-10         	48.000000
 I-AV-100        	20.395683
 I-AV-101        	19.338282
 I-AV-102        	25.844683
 I-AV-103        	40.751331
 I-AV-104        	44.907303
 O-AV-105        	48.000000
 I-AV-106        	191.694763
 I-AV-107        	11.243891
 I-AV-108        	11.234076
 O-AV-109        	62.369190
 I-AV-11         	87.362457
 O-AV-110        	40.736256
 O-AV-111        	13.772717
 O-AV-112        	13.355682
 O-AV-113        	24.504984
 O-AV-114        	19.416365
 O-AV-115        	14.955040
 O-AV-116        	17.006083
 O-AV-117        	40.823021
 I-AV-118        	11.537206
 I-AV-119        	9.532043
 I-AV-12         	20.276293
 O-AV-120        	10.795676
 I-AV-121        	10.548256
 O-AV-122        	8.395315
 O-AV-123        	7.667929
 O-AV-124        	10.673539
 I-AV-125        	6.860952
 O-AV-126        	8.388944
 O-AV-127        	13.349298
 O-AV-128        	6.503344
 I-AV-129        	89.133522
 I-AV-13         	35.902622
 I-AV-130        	34.144562
 O-AV-131        	19.463709
 O-AV-132        	22.328199
 I-AV-133        	30.825909
 I-AV-134        	32.967731
 I-AV-135        	31.176153
 I-AV-136        	29.163383
 O-AV-137        	8.808224
 I-AV-138        	33.992279
 O-AV-139        	19.927542
 I-AV-14         	44.484428
 I-AV-140        	33.837418
 I-AV-141        	9.391492
 I-AV-142        	40.569836
 I-AV-143        	41.721146
 I-AV-144        	39.524357
 O-AV-145        	48.000000
 I-AV-146        	39.959442
 I-AV-147        	37.178089
 I-AV-148        	48.742279
 I-AV-149        	47.863804
 I-AV-15         	25.144777
 O-AV-150        	56.074211
 I-AV-151        	46.476910
 I-AV-152        	52.530666
 I-AV-153        	56.188461
 O-AV-154        	28.753164
 I-AV-155        	46.771992
 I-AV-156        	167.845627
 I-AV-157        	16.572836
 I-AV-158        	15.275340
 O-AV-159        	12.392698
 I-AV-16         	23.647245
 O-AV-160        	9.043204
 I-AV-161        	61.890980
 O-AV-162        	42.116947
 O-AV-163        	13.484536
 O-AV-164        	13.438437
 O-AV-165        	12.771109
 I-AV-166        	13.999740
 I-AV-167        	66.260918
 I-AV-168        	14.733644
 I-AV-169        	12.558090
 O-AV-17         	26.450281
 I-AV-170        	13.821169
 I-AV-171        	13.615647
 I-AV-172        	13.594534
 O-AV-173        	25.690874
 I-AV-174        	14.533030
 O-AV-175        	15.137709
 I-AV-176        	12.524176
 I-AV-177        	36.149651
 I-AV-178        	48.000000
 O-AV-179        	13.603143
 I-AV-18         	35.917255
 I-AV-180        	13.586938
 I-AV-181        	14.701076
 O-AV-182        	12.167157
 O-AV-183        	12.094684
 O-AV-184        	11.918934
 O-AV-185        	11.733279
 O-AV-186        	11.671569
 O-AV-187        	11.919944
 O-AV-188        	12.351988
 I-AV-189        	151.215988
 O-AV-19         	22.439877
 O-AV-190        	12.634706
 O-AV-191        	13.283939
 I-AV-192        	13.482170
 O-AV-193        	36.709290
 O-AV-194        	24.247589
 O-AV-195        	79.708580
 I-AV-196        	31.252611
 O-AV-197        	34.273724
 I-AV-198        	21.059292
 O-AV-199        	29.120054
 I-AV-2          	53.889801
 O-AV-20         	19.914558
 I-AV-200        	26.550770
 I-AV-201        	18.530474
 I-AV-202        	37.228233
 O-AV-203        	81.664345
 O-AV-204        	154.891449
 O-AV-21         	14.351400
 O-AV-22         	13.343307
 O-AV-23         	48.000000
 O-AV-24         	48.000000
 O-AV-25         	38.228355
 O-AV-26         	13.889905
 O-AV-27         	15.469372
 O-AV-28         	14.384984
 O-AV-29         	15.275152
 O-AV-3          	116.528496
 O-AV-30         	14.133492
 O-AV-31         	14.164784
 O-AV-32         	15.005136
 O-AV-33         	15.215449
 O-AV-34         	17.169346
 O-AV-35         	17.279654
 I-AV-36         	37.917286
 O-AV-37         	48.000000
 I-AV-38         	15.676530
 O-AV-39         	19.325104
 I-AV-4          	180.990494
 O-AV-40         	36.703545
 I-AV-41         	84.527252
 I-AV-42         	48.000000
 I-AV-43         	7.237938
 I-AV-44         	3.016494
 O-AV-45         	48.000000
 O-AV-46         	2.852329
 I-AV-47         	91.181648
 I-AV-48         	7.159924
 I-AV-49         	9.456792
 O-AV-5          	55.629604
 I-AV-50         	9.212216
 O-AV-51         	7.945056
 O-AV-52         	8.528198
 O-AV-53         	8.494942
 I-AV-54         	8.578849
 I-AV-55         	8.722317
 I-AV-56         	9.259064
 O-AV-57         	9.666454
 I-AV-58         	35.551220
 I-AV-59         	9.666454
 O-AV-6          	56.216270
 O-AV-60         	8.832413
 I-AV-61         	12.652813
 I-AV-62         	14.009604
 O-AV-63         	29.446733
 O-AV-64         	78.276085
 O-AV-65         	163.167221
 O-AV-66         	13.668838
 O-AV-67         	38.652191
 I-AV-68         	81.927063
 I-AV-69         	26.133554
 O-AV-7          	135.323898
 I-AV-70         	14.056034
 O-AV-71         	25.510870
 I-AV-72         	14.234148
 O-AV-73         	13.950669
 O-AV-74         	100.259781
 I-AV-75         	27.611151
 I-AV-76         	44.385952
 O-AV-77         	43.790161
 O-AV-78         	48.000000
 I-AV-79         	15.549345
 O-AV-8          	62.507626
 O-AV-80         	21.675478
 O-AV-81         	54.932861
 O-AV-82         	139.666855
 O-AV-83         	12.875268
 O-AV-84         	18.643541
 I-AV-85         	68.848602
 O-AV-86         	108.146645
 O-AV-87         	55.415161
 I-AV-88         	62.272495
 O-AV-89         	55.523441
 O-AV-9          	48.000000
 I-AV-90         	58.833107
 I-AV-91         	47.966469
 I-AV-92         	51.609631
 I-AV-93         	26.856421
 O-AV-94         	25.420675
 O-AV-95         	33.246628
 O-AV-96         	32.421997
 O-AV-97         	35.396458
 I-AV-98         	19.224398
 O-AV-99         	20.574596
 O-Big_Branch_1  	33.406513
 O-Big_Branch_2  	93.955826
 I-Bowens_Creek  	13.831026
 O-Bowling_Br    	32.221992
 O-Essie         	16.359333
 I-Flackey_Branch	9.126149
 O-Glady_Branch  	16.333323
 I-High_Service  	0.083333
 O-Honey_Suckle  	41.049458
 O-Hospital_Hilla	22.040300
 I-Hurts_Creeka  	9.476853
 O-Hyden_Spura   	17.213074
 I-Lower_Bad_Creek	9.952219
 O-Muncy_Creeka  	6.405299
 I-Owls_Nesta    	20.374825
 I-Polls_Creek_1 	51.149979
 I-Polls_Creek_2 	22.120068
 O-Rockhousea    	14.287910
 O-Wilder_Branch 	36.325237
 O-Wolfe_Creeka  	41.341293
 I-Wooton_Mountain	15.328400

[SOURCES]
;Node            	Type        	Quality     	Pattern

[REACTIONS]
;Type     	Pipe/Tank       	Coefficient


[REACTIONS]
 Order Bulk            	0.00
 Order Tank            	0.00
 Order Wall            	0
 Global Bulk           	0.000000
 Global Wall           	0.000000
 Limiting Potential    	0
 Roughness Correlation 	0

[MIXING]
;Tank            	Model

[TIMES]
 Duration           	0:00 
 Hydraulic Timestep 	0:05 
 Quality Timestep   	0:05 
 Pattern Timestep   	1:00 
 Pattern Start      	0:00 
 Report Timestep    	1:00 
 Report Start       	0:00 
 Start ClockTime    	0:00:00
 Statistic          	NONE

[REPORT]
 Status             	Full
 Summary            	No
 Page               	0

[OPTIONS]
 Units              	GPM
 Headloss           	H-W
 Specific Gravity   	1.000000
 Viscosity          	1.000000
 Trials             	50
 Accuracy           	0.00010000
 CHECKFREQ          	2
 MAXCHECK           	10
 DAMPLIMIT          	0.00000000
 Unbalanced         	Continue 10
 Pattern            	1
 Demand Multiplier  	1.0000
 Emitter Exponent   	0.5000
 Quality            	AGE mg/L
 Diffusivity        	0.050000
 Tolerance          	0.01000000

[COORDINATES]
;Node            	X-Coord         	Y-Coord
 O-AV-1          	5646997.29      	3549976.00      
 O-AV-10         	5608231.83      	3656226.17      
 O-AV-100        	5689682.13      	3589814.00      
 O-AV-101        	5689978.90      	3589567.00      
 O-AV-102        	5683923.44      	3591007.00      
 O-AV-103        	5686342.45      	3592166.00      
 O-AV-104        	5646316.39      	3551643.00      
 I-AV-105        	5619993.08      	3587388.00      
 O-AV-106        	5650083.10      	3594107.00      
 O-AV-107        	5655168.18      	3596542.00      
 O-AV-108        	5650887.50      	3598374.00      
 I-AV-109        	5633699.23      	3594747.00      
 O-AV-11         	5616972.62      	3652262.98      
 I-AV-110        	5635652.94      	3592765.00      
 I-AV-111        	5627214.96      	3601206.00      
 I-AV-112        	5626006.13      	3593211.00      
 I-AV-113        	5632101.42      	3599778.00      
 I-AV-114        	5631029.77      	3601027.00      
 I-AV-115        	5629382.99      	3600901.00      
 I-AV-116        	5642003.53      	3598845.00      
 I-AV-117        	5640357.22      	3596012.00      
 O-AV-118        	5648980.99      	3598345.00      
 O-AV-119        	5646542.89      	3599224.00      
 O-AV-12         	5607995.78      	3631154.00      
 I-AV-120        	5637214.68      	3603877.00      
 O-AV-121        	5648173.60      	3600403.00      
 I-AV-122        	5643670.36      	3604379.00      
 I-AV-123        	5644101.86      	3608688.00      
 I-AV-124        	5640172.03      	3606077.00      
 O-AV-125        	5647826.65      	3613187.00      
 I-AV-126        	5640917.34      	3612592.00      
 I-AV-127        	5640610.59      	3620983.00      
 I-AV-128        	5647644.38      	3614317.00      
 O-AV-129        	5644368.47      	3551162.00      
 O-AV-13         	5615514.66      	3647368.00      
 O-AV-130        	5656704.67      	3615840.00      
 I-AV-131        	5650896.34      	3618327.00      
 I-AV-132        	5653282.20      	3617220.00      
 O-AV-133        	5661761.36      	3608470.00      
 O-AV-134        	5657915.18      	3611277.00      
 O-AV-135        	5661611.78      	3608661.00      
 O-AV-136        	5664235.03      	3617441.00      
 I-AV-137        	5659567.06      	3620792.00      
 O-AV-138        	5666026.27      	3609099.00      
 I-AV-139        	5665364.21      	3619298.00      
 O-AV-14         	5628682.76      	3556797.00      
 O-AV-140        	5664617.65      	3619134.00      
 O-AV-141        	5665507.97      	3622407.00      
 O-AV-142        	5677746.42      	3600447.00      
 O-AV-143        	5681076.82      	3597996.00      
 O-AV-144        	5695241.65      	3598730.00      
 I-AV-145        	5646408.91      	3555521.00      
 O-AV-146        	5690725.45      	3602430.00      
 O-AV-147        	5686061.79      	3603199.00      
 O-AV-148        	5683347.75      	3606246.00      
 O-AV-149        	5681858.89      	3606821.00      
 O-AV-15         	5613228.22      	3635472.00      
 I-AV-150        	5676219.26      	3620380.00      
 O-AV-151        	5685754.21      	3622390.00      
 O-AV-152        	5692730.02      	3619106.00      
 O-AV-153        	5676258.05      	3622129.00      
 I-AV-154        	5670567.90      	3617306.00      
 O-AV-155        	5672818.45      	3611988.00      
 O-AV-156        	5646456.08      	3555510.00      
 O-AV-157        	5670658.26      	3606881.00      
 O-AV-158        	5672979.58      	3625765.00      
 I-AV-159        	5665764.50      	3629075.00      
 O-AV-16         	5611508.91      	3633551.00      
 I-AV-160        	5662138.56      	3623384.00      
 O-AV-161        	5692669.85      	3567762.00      
 I-AV-162        	5676545.05      	3613523.00      
 I-AV-163        	5671081.17      	3630712.00      
 I-AV-164        	5668321.46      	3631954.00      
 I-AV-165        	5668596.66      	3633329.00      
 O-AV-166        	5671287.96      	3632103.00      
 O-AV-167        	5649323.21      	3555622.00      
 O-AV-168        	5673691.46      	3635333.00      
 O-AV-169        	5679220.88      	3636535.00      
 I-AV-17         	5600179.65      	3631188.00      
 O-AV-170        	5670238.07      	3637679.00      
 O-AV-171        	5669183.70      	3637768.00      
 O-AV-172        	5667998.23      	3637295.00      
 I-AV-173        	5669418.83      	3638852.00      
 O-AV-174        	5672620.16      	3641251.00      
 I-AV-175        	5674043.13      	3643799.00      
 O-AV-176        	5671685.19      	3647748.00      
 O-AV-177        	5673043.83      	3650074.00      
 O-AV-178        	5638391.81      	3549121.00      
 I-AV-179        	5664493.95      	3640683.00      
 O-AV-18         	5602028.88      	3633102.00      
 O-AV-180        	5664512.80      	3640937.00      
 O-AV-181        	5664686.27      	3642672.00      
 I-AV-182        	5666235.09      	3649232.00      
 I-AV-183        	5662723.75      	3649652.00      
 I-AV-184        	5659022.56      	3647355.00      
 I-AV-185        	5657075.98      	3647394.00      
 I-AV-186        	5655300.02      	3647683.00      
 I-AV-187        	5652673.13      	3647002.00      
 I-AV-188        	5652676.53      	3651271.00      
 O-AV-189        	5630638.60      	3543746.00      
 I-AV-19         	5604614.68      	3632060.00      
 I-AV-190        	5651820.17      	3651550.00      
 I-AV-191        	5648973.10      	3651912.00      
 O-AV-192        	5648744.16      	3651924.00      
 I-AV-193        	5647691.62      	3653078.00      
 I-AV-194        	5647977.77      	3651820.00      
 I-AV-195        	5642670.16      	3670368.00      
 O-AV-196        	5648821.31      	3667669.00      
 I-AV-197        	5643847.09      	3670483.00      
 O-AV-198        	5654377.45      	3662808.00      
 I-AV-199        	5649838.91      	3666625.00      
 O-AV-2          	5629242.94      	3546408.00      
 I-AV-20         	5606257.85      	3631765.00      
 O-AV-200        	5651053.24      	3665605.00      
 O-AV-201        	5655090.43      	3659855.00      
 O-AV-202        	5655951.96      	3663035.00      
 I-AV-203        	5646638.49      	3661247.00      
 I-AV-204        	5645730.05      	3661556.00      
 I-AV-21         	5609914.33      	3629510.00      
 I-AV-22         	5613312.20      	3626893.00      
 I-AV-23         	5617567.05      	3626949.00      
 I-AV-24         	5622519.29      	3620949.41      
 I-AV-25         	5629448.75      	3552753.00      
 I-AV-26         	5627902.62      	3619501.00      
 I-AV-27         	5629610.07      	3621603.00      
 I-AV-28         	5629668.64      	3620606.00      
 I-AV-29         	5630916.89      	3622439.00      
 I-AV-3          	5638889.94      	3655742.00      
 I-AV-30         	5633396.08      	3624428.00      
 I-AV-31         	5633968.69      	3624306.00      
 I-AV-32         	5635697.67      	3625121.00      
 I-AV-33         	5641085.53      	3626551.00      
 I-AV-34         	5645023.45      	3630148.00      
 I-AV-35         	5643545.31      	3630755.00      
 O-AV-36         	5629178.17      	3561414.00      
 I-AV-37         	5639744.05      	3633552.20      
 O-AV-38         	5637501.91      	3632420.00      
 I-AV-39         	5648461.25      	3630984.00      
 O-AV-4          	5643165.39      	3658598.00      
 I-AV-40         	5648435.36      	3631435.00      
 O-AV-41         	5646947.94      	3634331.44      
 O-AV-42         	5649253.78      	3628218.49      
 O-AV-43         	5650000.57      	3626820.00      
 O-AV-44         	5647127.42      	3625249.00      
 I-AV-45         	5647784.22      	3624177.00      
 I-AV-46         	5647794.88      	3624100.00      
 O-AV-47         	5630352.38      	3560555.00      
 O-AV-48         	5647533.50      	3623384.00      
 O-AV-49         	5650236.84      	3628869.00      
 I-AV-5          	5638632.98      	3655935.00      
 O-AV-50         	5650709.91      	3629931.00      
 I-AV-51         	5650389.97      	3628552.00      
 I-AV-52         	5652864.81      	3627942.00      
 I-AV-53         	5661552.02      	3633274.00      
 O-AV-54         	5661895.35      	3629173.00      
 O-AV-55         	5661693.55      	3626626.00      
 O-AV-56         	5659609.70      	3625560.00      
 I-AV-57         	5656035.95      	3626289.00      
 O-AV-58         	5629291.95      	3562739.00      
 O-AV-59         	5656071.35      	3626883.00      
 I-AV-6          	5636680.83      	3656707.00      
 I-AV-60         	5664175.04      	3625119.00      
 O-AV-61         	5671076.17      	3627163.00      
 O-AV-62         	5671988.82      	3626176.00      
 I-AV-63         	5668784.31      	3618552.00      
 I-AV-64         	5692967.37      	3607796.00      
 I-AV-65         	5625663.52      	3633409.00      
 I-AV-66         	5630456.77      	3635026.00      
 I-AV-67         	5627624.87      	3640385.00      
 O-AV-68         	5635720.15      	3645755.00      
 O-AV-69         	5630790.31      	3570829.00      
 I-AV-7          	5641118.00      	3646560.00      
 O-AV-70         	5637127.82      	3641462.00      
 I-AV-71         	5648068.77      	3636475.00      
 O-AV-72         	5672786.75      	3596202.00      
 I-AV-73         	5630117.07      	3630932.00      
 I-AV-74         	5630167.82      	3571912.00      
 O-AV-75         	5634041.44      	3575067.00      
 O-AV-76         	5644912.72      	3571483.00      
 I-AV-77         	5643651.93      	3572666.00      
 I-AV-78         	5642535.72      	3571145.00      
 O-AV-79         	5617432.06      	3585391.00      
 I-AV-8          	5642461.49      	3647456.00      
 I-AV-80         	5617430.35      	3578135.00      
 I-AV-81         	5646441.10      	3550673.00      
 I-AV-82         	5650404.05      	3587016.00      
 I-AV-83         	5618259.31      	3587203.00      
 I-AV-84         	5615308.96      	3587213.00      
 O-AV-85         	5657706.98      	3575900.00      
 I-AV-86         	5652989.78      	3584709.00      
 I-AV-87         	5661190.23      	3571812.00      
 O-AV-88         	5658198.99      	3574645.00      
 I-AV-89         	5670057.78      	3569463.00      
 I-AV-9          	5614097.97      	3649867.44      
 O-AV-90         	5661327.70      	3566892.00      
 O-AV-91         	5696719.98      	3565962.00      
 O-AV-92         	5681340.98      	3563559.00      
 O-AV-93         	5699809.38      	3581005.00      
 I-AV-94         	5698317.15      	3581509.00      
 I-AV-95         	5696479.04      	3593938.00      
 I-AV-96         	5698924.16      	3588897.00      
 I-AV-97         	5700095.98      	3591657.00      
 O-AV-98         	5691539.14      	3589713.00      
 I-AV-99         	5696731.41      	3591775.00      
 I-Big_Branch_1  	5643989.15      	3555744.00      
 I-Big_Branch_2  	5638755.70      	3551394.00      
 O-Bowens_Creek  	5616572.70      	3586690.00      
 I-Bowling_Br    	5628312.83      	3642104.00      
 I-Essie         	5630847.68      	3600913.00      
 O-Flackey_Branch	5660925.43      	3625544.00      
 I-Glady_Branch  	5635217.35      	3605789.00      
 O-High_Service  	5647877.97      	3623826.77      
 I-Honey_Suckle  	5634733.71      	3592848.00      
 I-Hospital_Hilla	5647411.04      	3633217.00      
 O-Hurts_Creeka  	5655287.06      	3626620.00      
 I-Hyden_Spura   	5644488.01      	3630223.00      
 J-1             	5615714.09      	3627132.00      
 J-10            	5668590.88      	3633021.00      
 J-100           	5626408.47      	3617970.00      
 J-101           	5638726.38      	3610720.00      
 J-102           	5692206.88      	3621365.00      
 J-103           	5692840.87      	3619029.00      
 J-104           	5647794.87      	3630850.00      
 J-105           	5647348.37      	3630824.00      
 J-106           	5629644.86      	3620494.00      
 J-107           	5632126.88      	3618292.00      
 J-108           	5643941.78      	3630459.00      
 J-109           	5643730.91      	3632332.00      
 J-11            	5619787.92      	3586928.72      
 J-110           	5654595.38      	3627152.00      
 J-111           	5653990.87      	3626853.00      
 J-112           	5671771.88      	3647885.00      
 J-113           	5649067.54      	3651544.00      
 J-114           	5656952.98      	3647380.00      
 J-115           	5657791.67      	3646977.00      
 J-116           	5652617.35      	3651365.00      
 J-117           	5654983.88      	3651371.00      
 J-118           	5620271.38      	3625908.00      
 J-119           	5633842.57      	3624781.00      
 J-12            	5619282.37      	3586732.00      
 J-120           	5631393.04      	3628977.00      
 J-121           	5661664.86      	3635548.00      
 J-122           	5683480.92      	3634891.00      
 J-123           	5683368.88      	3636451.00      
 J-124           	5635379.71      	3605684.00      
 J-125           	5635225.87      	3607199.00      
 J-126           	5664707.30      	3619845.00      
 J-127           	5649606.37      	3630876.00      
 J-128           	5649424.88      	3631056.00      
 J-129           	5647794.87      	3630819.00      
 J-13            	5642099.37      	3587740.00      
 J-130           	5649192.38      	3631619.00      
 J-131           	5647128.87      	3625248.00      
 J-132           	5649596.00      	3628550.00      
 J-133           	5649181.38      	3631656.00      
 J-134           	5648821.77      	3651585.00      
 J-135           	5646970.37      	3629843.00      
 J-136           	5651327.28      	3628506.00      
 J-137           	5654828.38      	3626795.00      
 J-138           	5659207.38      	3624896.00      
 J-139           	5648011.38      	3623929.00      
 J-14            	5639424.38      	3588013.00      
 J-140           	5656303.43      	3627193.00      
 J-141           	5668581.37      	3632449.00      
 J-142           	5676274.87      	3622056.00      
 J-143           	5685395.03      	3563146.00      
 J-144           	5689790.79      	3567020.00      
 J-145           	5706430.39      	3569091.00      
 J-146           	5635786.23      	3603518.00      
 J-147           	5632586.28      	3601097.00      
 J-148           	5621815.88      	3620969.00      
 J-149           	5605874.57      	3578299.00      
 J-15            	5644712.88      	3556384.00      
 J-150           	5605970.26      	3574691.00      
 J-151           	5640155.72      	3606067.00      
 J-152           	5630044.70      	3621943.00      
 J-153           	5634650.97      	3625243.00      
 J-154           	5640993.38      	3626525.00      
 J-155           	5639541.26      	3627980.00      
 J-156           	5671284.38      	3626678.00      
 J-157           	5693280.13      	3599832.00      
 J-158           	5637061.72      	3603894.00      
 J-159           	5649246.88      	3631842.00      
 J-16            	5646672.87      	3550135.00      
 J-160           	5647405.39      	3623455.00      
 J-162           	5664590.88      	3625757.00      
 J-163           	5663522.38      	3624019.00      
 J-164           	5666298.73      	3621711.00      
 J-165           	5665588.65      	3622323.00      
 J-166           	5665761.16      	3622904.00      
 J-167           	5652281.13      	3628252.00      
 J-168           	5672992.37      	3625747.00      
 J-169           	5676264.38      	3622124.00      
 J-17            	5644077.37      	3550837.00      
 J-170           	5621804.87      	3620999.00      
 J-171           	5654406.90      	3627444.00      
 J-172           	5670452.88      	3618402.00      
 J-173           	5668771.80      	3618537.00      
 J-174           	5647635.46      	3613894.00      
 J-175           	5644484.38      	3608744.00      
 J-176           	5647543.02      	3613962.00      
 J-177           	5696619.44      	3595176.00      
 J-178           	5629401.90      	3639520.00      
 J-179           	5624628.88      	3641846.00      
 J-18            	5646512.18      	3551102.00      
 J-180           	5653286.12      	3616931.00      
 J-181           	5648101.43      	3623773.00      
 J-182           	5605861.88      	3580345.00      
 J-183           	5646870.60      	3633675.00      
 J-184           	5646524.13      	3551099.00      
 J-185           	5629461.20      	3564824.00      
 J-186           	5691240.13      	3589701.00      
 J-187           	5643336.28      	3572037.00      
 J-189           	5643907.89      	3608556.00      
 J-19            	5646417.37      	3555542.00      
 J-191           	5632397.76      	3601051.00      
 J-192           	5630986.73      	3600998.00      
 J-193           	5630172.98      	3600598.00      
 J-194           	5629207.87      	3561192.00      
 J-195           	5684598.76      	3621450.00      
 J-196           	5690135.27      	3622630.00      
 J-197           	5639237.88      	3586899.00      
 J-198           	5629330.04      	3562769.00      
 J-199           	5630926.47      	3559616.00      
 J-2             	5607171.37      	3630528.00      
 J-20            	5651349.85      	3557234.00      
 J-200           	5631048.95      	3571375.00      
 J-201           	5624570.23      	3574011.00      
 J-202           	5625699.38      	3596987.00      
 J-203           	5647997.19      	3651752.00      
 J-204           	5657782.60      	3634222.00      
 J-205           	5660174.18      	3636802.00      
 J-206           	5646173.87      	3638758.00      
 J-207           	5674765.87      	3650485.00      
 J-208           	5635507.37      	3642028.00      
 J-209           	5631216.01      	3643600.00      
 J-21            	5642761.88      	3555229.00      
 J-210           	5684950.88      	3592092.00      
 J-212           	5673032.94      	3642767.00      
 J-213           	5649411.37      	3630748.00      
 J-214           	5670083.87      	3637953.00      
 J-215           	5677381.19      	3565044.00      
 J-216           	5630747.37      	3597352.00      
 J-217           	5628781.88      	3596404.00      
 J-218           	5644364.38      	3600004.00      
 J-219           	5632014.37      	3599324.00      
 J-22            	5639451.38      	3552599.00      
 J-220           	5644365.38      	3600006.00      
 J-221           	5647838.88      	3652312.00      
 J-222           	5644030.88      	3608663.00      
 J-223           	5657960.50      	3575139.00      
 J-224           	5689803.37      	3589710.00      
 J-225           	5636230.37      	3546556.00      
 J-226           	5631629.38      	3544264.00      
 J-227           	5692294.37      	3590055.00      
 J-228           	5672032.87      	3639866.00      
 J-229           	5670041.38      	3638391.00      
 J-23            	5630071.87      	3543754.00      
 J-230           	5669399.77      	3639556.00      
 J-231           	5643290.37      	3636114.00      
 J-232           	5651110.38      	3629272.00      
 J-233           	5655043.38      	3632871.00      
 J-234           	5637834.88      	3547406.00      
 J-235           	5667358.70      	3611278.00      
 J-236           	5664586.22      	3619113.00      
 J-237           	5665467.88      	3619213.00      
 J-238           	5629827.24      	3639361.00      
 J-239           	5600172.75      	3631260.00      
 J-24            	5631071.70      	3543747.00      
 J-240           	5599166.09      	3631010.00      
 J-241           	5661405.18      	3608712.00      
 J-242           	5665790.02      	3603666.00      
 J-243           	5667272.02      	3608411.00      
 J-244           	5697243.54      	3592799.00      
 J-245           	5634132.87      	3644454.00      
 J-246           	5632184.38      	3638187.00      
 J-247           	5629083.88      	3632514.00      
 J-248           	5679298.87      	3636587.00      
 J-249           	5645462.88      	3670069.00      
 J-25            	5662913.25      	3640367.00      
 J-250           	5662801.34      	3641054.00      
 J-251           	5646825.88      	3599389.00      
 J-252           	5638182.63      	3545787.00      
 J-253           	5638616.78      	3631300.00      
 J-254           	5643709.47      	3555956.00      
 J-255           	5643564.37      	3572100.00      
 J-256           	5643882.60      	3571649.00      
 J-257           	5643324.62      	3572029.00      
 J-258           	5641275.33      	3569539.00      
 J-259           	5652176.37      	3546249.00      
 J-26            	5663171.65      	3638040.00      
 J-260           	5638606.38      	3552032.00      
 J-261           	5649197.38      	3630588.00      
 J-262           	5648159.88      	3653035.00      
 J-263           	5647684.37      	3653204.00      
 J-265           	5689740.37      	3589762.00      
 J-266           	5689106.38      	3586382.00      
 J-267           	5648014.88      	3631342.00      
 J-268           	5669005.38      	3642571.00      
 J-27            	5664514.38      	3640874.00      
 J-270           	5654550.87      	3625238.00      
 J-271           	5653113.38      	3625855.00      
 J-272           	5670308.43      	3598973.00      
 J-273           	5690430.68      	3624057.00      
 J-274           	5690712.87      	3622473.00      
 J-275           	5696718.87      	3616726.00      
 J-276           	5637380.23      	3607318.00      
 J-277           	5645970.37      	3630951.00      
 J-278           	5643033.27      	3670255.00      
 J-279           	5638885.37      	3669172.00      
 J-28            	5626176.48      	3592631.00      
 J-280           	5654658.17      	3628233.00      
 J-281           	5691886.88      	3614686.00      
 J-282           	5681337.39      	3588584.00      
 J-283           	5640514.37      	3610912.00      
 J-284           	5667532.19      	3632707.00      
 J-285           	5667704.70      	3632902.00      
 J-286           	5675750.72      	3592888.00      
 J-287           	5644015.01      	3548175.00      
 J-288           	5631687.37      	3595988.00      
 J-289           	5649983.35      	3670603.00      
 J-29            	5672936.44      	3611863.00      
 J-290           	5648211.88      	3669401.00      
 J-291           	5658024.60      	3661782.00      
 J-292           	5654573.26      	3662682.00      
 J-293           	5654982.63      	3654204.00      
 J-294           	5646104.38      	3661221.00      
 J-295           	5636357.93      	3652477.00      
 J-296           	5638632.23      	3655663.00      
 J-297           	5636288.49      	3658136.00      
 J-298           	5636765.92      	3656443.00      
 J-299           	5631253.94      	3654035.00      
 J-3             	5607394.29      	3630442.00      
 J-30            	5681672.37      	3596695.00      
 J-300           	5643031.58      	3670265.00      
 J-301           	5641774.60      	3671018.00      
 J-302           	5647675.10      	3600361.00      
 J-303           	5669912.87      	3591357.00      
 J-304           	5647404.72      	3623422.00      
 J-305           	5639058.77      	3621435.00      
 J-306           	5621547.64      	3627955.00      
 J-307           	5637273.88      	3597440.00      
 J-308           	5667281.87      	3632514.00      
 J-309           	5629583.76      	3640568.00      
 J-31            	5650779.37      	3633252.00      
 J-310           	5625726.70      	3643604.00      
 J-311           	5606175.26      	3642574.00      
 J-312           	5671361.89      	3626619.00      
 J-313           	5669702.53      	3625864.00      
 J-314           	5639237.92      	3621234.00      
 J-315           	5637869.13      	3620036.00      
 J-316           	5654839.57      	3617621.00      
 J-317           	5637879.38      	3613455.00      
 J-318           	5691227.38      	3627454.00      
 J-319           	5657274.02      	3574219.00      
 J-32            	5646173.87      	3638727.00      
 J-320           	5655724.96      	3570911.00      
 J-321           	5641386.88      	3609216.00      
 J-322           	5649399.88      	3630295.00      
 J-323           	5630961.38      	3607418.00      
 J-324           	5660584.74      	3575927.00      
 J-325           	5663525.00      	3565194.00      
 J-326           	5648089.86      	3623783.00      
 J-327           	5647848.91      	3624099.00      
 J-328           	5647968.88      	3623962.00      
 J-329           	5655713.25      	3626608.00      
 J-33            	5634000.38      	3638875.00      
 J-330           	5656634.70      	3633345.00      
 J-331           	5672680.00      	3642692.00      
 J-332           	5647840.15      	3624098.00      
 J-333           	5643661.21      	3604774.00      
 J-334           	5656472.38      	3614052.00      
 J-335           	5695313.48      	3598637.00      
 J-336           	5699746.46      	3604390.00      
 J-337           	5700357.87      	3591307.00      
 J-338           	5698304.38      	3581434.00      
 J-339           	5705590.38      	3584128.00      
 J-34            	5632830.87      	3638724.00      
 J-340           	5698345.88      	3576004.00      
 J-341           	5703577.88      	3577779.00      
 J-343           	5649414.77      	3626277.00      
 J-344           	5649318.33      	3627632.00      
 J-345           	5658849.06      	3635359.00      
 J-347           	5629388.85      	3639525.00      
 J-35            	5648011.38      	3632465.00      
 J-36            	5632062.38      	3638669.00      
 J-37            	5627990.50      	3636493.00      
 J-38            	5666117.49      	3562044.00      
 J-39            	5661019.99      	3570177.00      
 J-4             	5612075.49      	3656650.00      
 J-40            	5641268.87      	3611618.00      
 J-41            	5640552.38      	3612661.00      
 J-42            	5648556.37      	3660144.00      
 J-43            	5649567.65      	3662678.00      
 J-44            	5662082.37      	3623402.00      
 J-45            	5659544.88      	3620594.00      
 J-46            	5626266.37      	3618928.00      
 J-47            	5626033.46      	3619511.00      
 J-48            	5653514.35      	3616399.00      
 J-49            	5656559.97      	3614072.00      
 J-5             	5613087.33      	3650765.00      
 J-50            	5640462.37      	3595445.00      
 J-51            	5632573.88      	3595976.00      
 J-52            	5642874.37      	3609490.00      
 J-53            	5641555.88      	3611022.00      
 J-54            	5629477.40      	3621249.00      
 J-55            	5627516.88      	3623127.00      
 J-56            	5657241.38      	3618777.00      
 J-57            	5690844.24      	3622792.00      
 J-58            	5690766.11      	3622467.00      
 J-59            	5648378.38      	3652263.00      
 J-6             	5618968.86      	3651469.00      
 J-60            	5648949.87      	3650269.00      
 J-61            	5651458.38      	3633754.00      
 J-62            	5636089.15      	3641153.00      
 J-63            	5638247.14      	3641796.00      
 J-64            	5641809.68      	3646573.00      
 J-65            	5639421.18      	3642815.00      
 J-66            	5634173.87      	3638900.00      
 J-67            	5643685.22      	3604761.00      
 J-68            	5643573.88      	3601059.00      
 J-69            	5632815.88      	3638721.00      
 J-7             	5648546.37      	3631812.00      
 J-70            	5638682.31      	3648182.00      
 J-71            	5616675.27      	3586991.33      
 J-72            	5609332.87      	3589372.00      
 J-73            	5605437.24      	3632327.00      
 J-74            	5607017.19      	3634700.00      
 J-75            	5662116.71      	3625556.00      
 J-76            	5661820.10      	3627423.00      
 J-77            	5622217.51      	3627336.00      
 J-78            	5623289.32      	3627258.00      
 J-79            	5684567.99      	3605957.00      
 J-8             	5649203.37      	3631748.00      
 J-80            	5689832.56      	3609336.00      
 J-81            	5692190.37      	3602270.00      
 J-82            	5695377.88      	3606612.00      
 J-83            	5669993.37      	3637674.00      
 J-84            	5679312.65      	3636594.00      
 J-85            	5639970.88      	3634025.00      
 J-86            	5637446.90      	3633564.00      
 J-87            	5644056.88      	3630389.00      
 J-88            	5642461.44      	3631990.00      
 J-89            	5641308.06      	3632102.00      
 J-9             	5669766.87      	3637432.00      
 J-90            	5683043.37      	3639248.00      
 J-91            	5646502.76      	3630097.00      
 J-92            	5644254.37      	3630310.00      
 J-93            	5647024.87      	3630123.00      
 J-94            	5666774.23      	3643412.00      
 J-95            	5664654.38      	3642547.00      
 J-96            	5666053.51      	3644356.00      
 J-97            	5664309.48      	3643627.00      
 J-98            	5662192.00      	3642409.00      
 J-99            	5626021.87      	3618831.00      
 O-Lower_Bad_Creek	5647377.88      	3600921.00      
 I-Muncy_Creeka  	5647548.52      	3614063.00      
 O-Owls_Nesta    	5657382.09      	3632881.00      
 O-Polls_Creek_1 	5691039.14      	3622203.00      
 O-Polls_Creek_2 	5690942.51      	3624030.00      
 I-Rockhousea    	5635316.36      	3624087.00      
 I-Wilder_Branch 	5643290.49      	3670314.00      
 I-Wolfe_Creeka  	5681124.25      	3599619.00      
 O-Wooton_Mountain	5673437.71      	3643649.00      
 I-AV-1          	5646997.29      	3549976.00      
 I-AV-10         	5608854.05      	3652337.30      
 I-AV-100        	5689682.13      	3589814.00      
 I-AV-101        	5689978.90      	3589567.00      
 I-AV-102        	5683923.44      	3591007.00      
 I-AV-103        	5686342.45      	3592166.00      
 I-AV-104        	5646316.39      	3551643.00      
 O-AV-105        	5619993.08      	3587388.00      
 I-AV-106        	5650083.10      	3594107.00      
 I-AV-107        	5655168.18      	3596542.00      
 I-AV-108        	5650887.50      	3598374.00      
 O-AV-109        	5633699.23      	3594747.00      
 I-AV-11         	5616236.80      	3652204.00      
 O-AV-110        	5635652.94      	3592765.00      
 O-AV-111        	5627214.96      	3601206.00      
 O-AV-112        	5626006.13      	3593211.00      
 O-AV-113        	5632101.42      	3599778.00      
 O-AV-114        	5631029.77      	3601027.00      
 O-AV-115        	5629382.99      	3600901.00      
 O-AV-116        	5642003.53      	3598845.00      
 O-AV-117        	5640357.22      	3596012.00      
 I-AV-118        	5648980.99      	3598345.00      
 I-AV-119        	5646542.89      	3599224.00      
 I-AV-12         	5607995.78      	3631154.00      
 O-AV-120        	5637214.68      	3603877.00      
 I-AV-121        	5648173.60      	3600403.00      
 O-AV-122        	5643670.36      	3604379.00      
 O-AV-123        	5644101.86      	3608688.00      
 O-AV-124        	5640172.03      	3606077.00      
 I-AV-125        	5647826.65      	3613187.00      
 O-AV-126        	5640917.34      	3612592.00      
 O-AV-127        	5640610.59      	3620983.00      
 O-AV-128        	5647644.38      	3614317.00      
 I-AV-129        	5644368.47      	3551162.00      
 I-AV-13         	5615514.66      	3647368.00      
 I-AV-130        	5656704.67      	3615840.00      
 O-AV-131        	5650896.34      	3618327.00      
 O-AV-132        	5653282.20      	3617220.00      
 I-AV-133        	5661761.36      	3608470.00      
 I-AV-134        	5657915.18      	3611277.00      
 I-AV-135        	5661611.78      	3608661.00      
 I-AV-136        	5664235.03      	3617441.00      
 O-AV-137        	5659567.06      	3620792.00      
 I-AV-138        	5666026.27      	3609099.00      
 O-AV-139        	5665364.21      	3619298.00      
 I-AV-14         	5628682.76      	3556797.00      
 I-AV-140        	5664617.65      	3619134.00      
 I-AV-141        	5665507.97      	3622407.00      
 I-AV-142        	5677746.42      	3600447.00      
 I-AV-143        	5681076.82      	3597996.00      
 I-AV-144        	5695241.65      	3598730.00      
 O-AV-145        	5646408.91      	3555521.00      
 I-AV-146        	5690725.45      	3602430.00      
 I-AV-147        	5686061.79      	3603199.00      
 I-AV-148        	5683347.75      	3606246.00      
 I-AV-149        	5681858.89      	3606821.00      
 I-AV-15         	5613228.22      	3635472.00      
 O-AV-150        	5676219.26      	3620380.00      
 I-AV-151        	5685754.21      	3622390.00      
 I-AV-152        	5692730.02      	3619106.00      
 I-AV-153        	5676258.05      	3622129.00      
 O-AV-154        	5670567.90      	3617306.00      
 I-AV-155        	5672818.45      	3611988.00      
 I-AV-156        	5646456.08      	3555510.00      
 I-AV-157        	5670658.26      	3606881.00      
 I-AV-158        	5672979.58      	3625765.00      
 O-AV-159        	5665764.50      	3629075.00      
 I-AV-16         	5611508.91      	3633551.00      
 O-AV-160        	5662138.56      	3623384.00      
 I-AV-161        	5692669.85      	3567762.00      
 O-AV-162        	5676545.05      	3613523.00      
 O-AV-163        	5671081.17      	3630712.00      
 O-AV-164        	5668321.46      	3631954.00      
 O-AV-165        	5668596.66      	3633329.00      
 I-AV-166        	5671287.96      	3632103.00      
 I-AV-167        	5649323.21      	3555622.00      
 I-AV-168        	5673691.46      	3635333.00      
 I-AV-169        	5679220.88      	3636535.00      
 O-AV-17         	5600179.65      	3631188.00      
 I-AV-170        	5670238.07      	3637679.00      
 I-AV-171        	5669183.70      	3637768.00      
 I-AV-172        	5667998.23      	3637295.00      
 O-AV-173        	5669418.83      	3638852.00      
 I-AV-174        	5672620.16      	3641251.00      
 O-AV-175        	5674043.13      	3643799.00      
 I-AV-176        	5671685.19      	3647748.00      
 I-AV-177        	5673043.83      	3650074.00      
 I-AV-178        	5638391.81      	3549121.00      
 O-AV-179        	5664493.95      	3640683.00      
 I-AV-18         	5602028.88      	3633102.00      
 I-AV-180        	5664512.80      	3640937.00      
 I-AV-181        	5664686.27      	3642672.00      
 O-AV-182        	5666235.09      	3649232.00      
 O-AV-183        	5662723.75      	3649652.00      
 O-AV-184        	5659022.56      	3647355.00      
 O-AV-185        	5657075.98      	3647394.00      
 O-AV-186        	5655300.02      	3647683.00      
 O-AV-187        	5652673.13      	3647002.00      
 O-AV-188        	5652676.53      	3651271.00      
 I-AV-189        	5630638.60      	3543746.00      
 O-AV-19         	5604614.68      	3632060.00      
 O-AV-190        	5651820.17      	3651550.00      
 O-AV-191        	5648973.10      	3651912.00      
 I-AV-192        	5648744.16      	3651924.00      
 O-AV-193        	5647691.62      	3653078.00      
 O-AV-194        	5647977.77      	3651820.00      
 O-AV-195        	5642670.16      	3670368.00      
 I-AV-196        	5648821.31      	3667669.00      
 O-AV-197        	5643847.09      	3670483.00      
 I-AV-198        	5654377.45      	3662808.00      
 O-AV-199        	5649838.91      	3666625.00      
 I-AV-2          	5629242.94      	3546408.00      
 O-AV-20         	5606257.85      	3631765.00      
 I-AV-200        	5651053.24      	3665605.00      
 I-AV-201        	5655090.43      	3659855.00      
 I-AV-202        	5655951.96      	3663035.00      
 O-AV-203        	5646638.49      	3661247.00      
 O-AV-204        	5645730.05      	3661556.00      
 O-AV-21         	5609914.33      	3629510.00      
 O-AV-22         	5613312.20      	3626893.00      
 O-AV-23         	5617567.05      	3626949.00      
 O-AV-24         	5621816.46      	3620968.00      
 O-AV-25         	5629448.75      	3552753.00      
 O-AV-26         	5627902.62      	3619501.00      
 O-AV-27         	5629610.07      	3621603.00      
 O-AV-28         	5629668.64      	3620606.00      
 O-AV-29         	5630916.89      	3622439.00      
 O-AV-3          	5638889.94      	3655742.00      
 O-AV-30         	5633396.08      	3624428.00      
 O-AV-31         	5633968.69      	3624306.00      
 O-AV-32         	5635697.67      	3625121.00      
 O-AV-33         	5641085.53      	3626551.00      
 O-AV-34         	5645023.45      	3630148.00      
 O-AV-35         	5643545.31      	3630755.00      
 I-AV-36         	5629178.17      	3561414.00      
 O-AV-37         	5639650.91      	3633545.00      
 I-AV-38         	5637501.91      	3632420.00      
 O-AV-39         	5648461.25      	3630984.00      
 I-AV-4          	5643165.39      	3658598.00      
 O-AV-40         	5648435.36      	3631435.00      
 I-AV-41         	5646851.08      	3634328.00      
 I-AV-42         	5649055.52      	3628190.00      
 I-AV-43         	5650000.57      	3626820.00      
 I-AV-44         	5647127.42      	3625249.00      
 O-AV-45         	5647784.22      	3624177.00      
 O-AV-46         	5647794.88      	3624100.00      
 I-AV-47         	5630352.38      	3560555.00      
 I-AV-48         	5647533.50      	3623384.00      
 I-AV-49         	5650236.84      	3628869.00      
 O-AV-5          	5638632.98      	3655935.00      
 I-AV-50         	5650709.91      	3629931.00      
 O-AV-51         	5650389.97      	3628552.00      
 O-AV-52         	5652864.81      	3627942.00      
 O-AV-53         	5661552.02      	3633274.00      
 I-AV-54         	5661895.35      	3629173.00      
 I-AV-55         	5661693.55      	3626626.00      
 I-AV-56         	5659609.70      	3625560.00      
 O-AV-57         	5656035.95      	3626289.00      
 I-AV-58         	5629291.95      	3562739.00      
 I-AV-59         	5656071.35      	3626883.00      
 O-AV-6          	5636680.83      	3656707.00      
 O-AV-60         	5664175.04      	3625119.00      
 I-AV-61         	5671076.17      	3627163.00      
 I-AV-62         	5671988.82      	3626176.00      
 O-AV-63         	5668784.31      	3618552.00      
 O-AV-64         	5692967.37      	3607796.00      
 O-AV-65         	5625663.52      	3633409.00      
 O-AV-66         	5630456.77      	3635026.00      
 O-AV-67         	5627624.87      	3640385.00      
 I-AV-68         	5635720.15      	3645755.00      
 I-AV-69         	5630790.31      	3570829.00      
 O-AV-7          	5641118.00      	3646560.00      
 I-AV-70         	5637127.82      	3641462.00      
 O-AV-71         	5648068.77      	3636475.00      
 I-AV-72         	5672786.75      	3596202.00      
 O-AV-73         	5630117.07      	3630932.00      
 O-AV-74         	5630167.82      	3571912.00      
 I-AV-75         	5634041.44      	3575067.00      
 I-AV-76         	5644912.72      	3571483.00      
 O-AV-77         	5643651.93      	3572666.00      
 O-AV-78         	5642535.72      	3571145.00      
 I-AV-79         	5617432.06      	3585391.00      
 O-AV-8          	5642461.49      	3647456.00      
 O-AV-80         	5617430.35      	3578135.00      
 O-AV-81         	5646441.10      	3550673.00      
 O-AV-82         	5650404.05      	3587016.00      
 O-AV-83         	5618259.31      	3587203.00      
 O-AV-84         	5615308.96      	3587213.00      
 I-AV-85         	5657706.98      	3575900.00      
 O-AV-86         	5652989.78      	3584709.00      
 O-AV-87         	5661190.23      	3571812.00      
 I-AV-88         	5658198.99      	3574645.00      
 O-AV-89         	5670057.78      	3569463.00      
 O-AV-9          	5613539.01      	3650027.14      
 I-AV-90         	5661327.70      	3566892.00      
 I-AV-91         	5696719.98      	3565962.00      
 I-AV-92         	5681340.98      	3563559.00      
 I-AV-93         	5699809.38      	3581005.00      
 O-AV-94         	5698317.15      	3581509.00      
 O-AV-95         	5696479.04      	3593938.00      
 O-AV-96         	5698924.16      	3588897.00      
 O-AV-97         	5700095.98      	3591657.00      
 I-AV-98         	5691539.14      	3589713.00      
 O-AV-99         	5696731.41      	3591775.00      
 O-Big_Branch_1  	5643989.15      	3555744.00      
 O-Big_Branch_2  	5638755.70      	3551394.00      
 I-Bowens_Creek  	5616572.70      	3586690.00      
 O-Bowling_Br    	5628312.83      	3642104.00      
 O-Essie         	5630847.68      	3600913.00      
 I-Flackey_Branch	5660925.43      	3625544.00      
 O-Glady_Branch  	5635217.35      	3605789.00      
 I-High_Service  	5648042.82      	3623359.69      
 O-Honey_Suckle  	5634733.71      	3592848.00      
 O-Hospital_Hilla	5647411.04      	3633217.00      
 I-Hurts_Creeka  	5655287.06      	3626620.00      
 O-Hyden_Spura   	5644488.01      	3630223.00      
 I-Lower_Bad_Creek	5647377.88      	3600921.00      
 O-Muncy_Creeka  	5647548.52      	3614063.00      
 I-Owls_Nesta    	5657382.09      	3632881.00      
 I-Polls_Creek_1 	5691039.14      	3622203.00      
 I-Polls_Creek_2 	5690942.51      	3624030.00      
 O-Rockhousea    	5635316.36      	3624087.00      
 O-Wilder_Branch 	5643290.49      	3670314.00      
 O-Wolfe_Creeka  	5681124.25      	3599619.00      
 I-Wooton_Mountain	5673437.71      	3643649.00      
 Middle_Fork     	5648056.56      	3622947.56      
 1               	5640602.81      	3551481.22      
 2               	5638782.36      	3546152.28      
 3               	5624973.44      	3592954.00      
 4               	5646708.80      	3634542.45      
 5               	5665783.35      	3626257.43      
 6               	5639078.53      	3633324.94      
 7               	5643324.18      	3608656.94      
 8               	5648691.16      	3628735.50      
 9               	5657257.64      	3636493.26      
 10              	5621052.02      	3621749.74      
 11              	5691373.36      	3589950.78      

[VERTICES]
;Link            	X-Coord         	Y-Coord

[LABELS]
;X-Coord           Y-Coord          Label & Anchor Node

[BACKDROP]
 DIMENSIONS     	5593802.87      	3537382.40      	5711793.61      	3677381.60      
 UNITS          	None
 FILE           	
 OFFSET         	0.00            	0.00            

[END]
