[TITLE]


[JUNCTIONS]
;ID              	Elev        	Demand      	Pattern         
 O-1410_Pump     	1492.5000   	0.000000    	1               	;
 O-AV-1          	1134.3000   	0.000000    	1               	;
 I-AV-10         	1214.2000   	0.000000    	1               	;
 I-AV-100        	1144.2000   	0.000000    	1               	;
 I-AV-102        	1066.1000   	0.000000    	1               	;
 I-AV-103        	1056.4000   	0.000000    	1               	;
 I-AV-104        	1051.2000   	0.000000    	1               	;
 I-AV-105        	1022.1000   	0.000000    	1               	;
 I-AV-106        	1022.7000   	0.000000    	1               	;
 I-AV-107        	1401.1000   	0.000000    	1               	;
 I-AV-108        	1166.7000   	0.000000    	1               	;
 I-AV-109        	1136.2000   	0.000000    	1               	;
 I-AV-11         	1235.8000   	0.000000    	1               	;
 I-AV-110        	1011.6000   	0.000000    	1               	;
 I-AV-111        	991.7000    	0.000000    	1               	;
 I-AV-112        	1036.7000   	0.000000    	1               	;
 I-AV-113        	1168.5000   	0.000000    	1               	;
 I-AV-114        	987.8000    	0.000000    	1               	;
 I-AV-115        	1169.4000   	0.000000    	1               	;
 I-AV-116        	987.8000    	0.000000    	1               	;
 I-AV-117        	987.5000    	0.000000    	1               	;
 I-AV-118        	987.5000    	0.000000    	1               	;
 I-AV-119        	985.1000    	0.000000    	1               	;
 I-AV-12         	1249.3000   	0.000000    	1               	;
 I-AV-120        	980.0000    	0.000000    	1               	;
 I-AV-121        	1221.0000   	0.000000    	1               	;
 I-AV-122        	981.2000    	0.000000    	1               	;
 I-AV-123        	984.5000    	0.000000    	1               	;
 I-AV-124        	1170.8000   	0.000000    	1               	;
 I-AV-125        	985.0000    	0.000000    	1               	;
 I-AV-126        	984.4000    	0.000000    	1               	;
 I-AV-127        	1140.6000   	0.000000    	1               	;
 I-AV-128        	966.8000    	0.000000    	1               	;
 I-AV-129        	966.9000    	0.000000    	1               	;
 I-AV-13         	1205.5000   	0.000000    	1               	;
 I-AV-130        	969.7000    	0.000000    	1               	;
 I-AV-131        	1093.3000   	0.000000    	1               	;
 I-AV-132        	1131.3000   	0.000000    	1               	;
 I-AV-133        	1130.8000   	0.000000    	1               	;
 I-AV-134        	1306.7000   	0.000000    	1               	;
 I-AV-135        	1171.1000   	0.000000    	1               	;
 I-AV-136        	934.8000    	0.000000    	1               	;
 I-AV-137        	961.9000    	0.000000    	1               	;
 I-AV-138        	928.7000    	0.000000    	1               	;
 I-AV-139        	987.9000    	0.000000    	1               	;
 I-AV-14         	1413.6000   	0.000000    	1               	;
 I-AV-140        	1176.2000   	0.000000    	1               	;
 I-AV-141        	920.6000    	0.000000    	1               	;
 I-AV-142        	918.9000    	0.000000    	1               	;
 I-AV-143        	913.5000    	0.000000    	1               	;
 I-AV-144        	914.4000    	0.000000    	1               	;
 I-AV-145        	914.9000    	0.000000    	1               	;
 I-AV-147        	910.9000    	0.000000    	1               	;
 I-AV-148        	915.2000    	0.000000    	1               	;
 I-AV-149        	1192.1000   	0.000000    	1               	;
 I-AV-15         	1436.4000   	0.000000    	1               	;
 I-AV-150        	916.1000    	0.000000    	1               	;
 I-AV-151        	935.9000    	0.000000    	1               	;
 I-AV-152        	1184.0000   	0.000000    	1               	;
 I-AV-153        	1004.8000   	0.000000    	1               	;
 I-AV-154        	880.3000    	0.000000    	1               	;
 I-AV-155        	886.3000    	0.000000    	1               	;
 I-AV-156        	879.6000    	0.000000    	1               	;
 I-AV-157        	1052.6000   	0.000000    	1               	;
 I-AV-158        	912.2000    	0.000000    	1               	;
 I-AV-159        	811.9000    	0.000000    	1               	;
 I-AV-16         	1083.2000   	0.000000    	1               	;
 I-AV-160        	811.0000    	0.000000    	1               	;
 I-AV-161        	768.3000    	0.000000    	1               	;
 I-AV-162        	1492.9000   	0.000000    	1               	;
 I-AV-163        	851.9000    	0.000000    	1               	;
 I-AV-164        	1192.5000   	0.000000    	1               	;
 I-AV-165        	834.8000    	0.000000    	1               	;
 I-AV-166        	780.0000    	0.000000    	1               	;
 I-AV-167        	789.8000    	0.000000    	1               	;
 I-AV-168        	1235.1000   	0.000000    	1               	;
 I-AV-169        	799.4000    	0.000000    	1               	;
 I-AV-17         	1021.3000   	0.000000    	1               	;
 I-AV-170        	806.5000    	0.000000    	1               	;
 I-AV-171        	781.3000    	0.000000    	1               	;
 I-AV-172        	781.4000    	0.000000    	1               	;
 I-AV-173        	781.3000    	0.000000    	1               	;
 I-AV-174        	803.9000    	0.000000    	1               	;
 I-AV-175        	1492.8000   	0.000000    	1               	;
 I-AV-176        	1238.4000   	0.000000    	1               	;
 I-AV-177        	797.1000    	0.000000    	1               	;
 I-AV-178        	803.3000    	0.000000    	1               	;
 I-AV-179        	1177.3000   	0.000000    	1               	;
 I-AV-18         	1605.5000   	0.000000    	1               	;
 I-AV-180        	805.6000    	0.000000    	1               	;
 I-AV-181        	805.3000    	0.000000    	1               	;
 I-AV-182        	855.8000    	0.000000    	1               	;
 I-AV-183        	810.5000    	0.000000    	1               	;
 I-AV-184        	809.8000    	0.000000    	1               	;
 I-AV-185        	810.3000    	0.000000    	1               	;
 I-AV-186        	810.0000    	0.000000    	1               	;
 I-AV-187        	808.9000    	0.000000    	1               	;
 I-AV-188        	1189.3000   	0.000000    	1               	;
 I-AV-189        	1148.1000   	0.000000    	1               	;
 I-AV-19         	1604.6000   	0.000000    	1               	;
 I-AV-190        	978.3000    	0.000000    	1               	;
 I-AV-191        	1428.8000   	0.000000    	1               	;
 I-AV-192        	1037.3000   	0.000000    	1               	;
 I-AV-193        	845.0000    	0.000000    	1               	;
 I-AV-194        	853.5000    	0.000000    	1               	;
 I-AV-195        	858.0000    	0.000000    	1               	;
 I-AV-196        	874.8000    	0.000000    	1               	;
 I-AV-197        	937.2000    	0.000000    	1               	;
 I-AV-198        	961.9000    	0.000000    	1               	;
 I-AV-199        	961.0000    	0.000000    	1               	;
 I-AV-2          	1205.2000   	0.000000    	1               	;
 I-AV-20         	1601.4000   	0.000000    	1               	;
 I-AV-201        	978.5000    	0.000000    	1               	;
 I-AV-202        	1049.6000   	0.000000    	1               	;
 I-AV-203        	1126.9000   	0.000000    	1               	;
 I-AV-204        	1202.1000   	0.000000    	1               	;
 I-AV-205        	1202.1000   	0.000000    	1               	;
 I-AV-206        	942.8000    	0.000000    	1               	;
 I-AV-207        	969.0000    	0.000000    	1               	;
 I-AV-208        	1131.9000   	0.000000    	1               	;
 I-AV-209        	817.9000    	0.000000    	1               	;
 I-AV-21         	1608.6000   	0.000000    	1               	;
 I-AV-210        	818.9000    	0.000000    	1               	;
 I-AV-211        	1097.8000   	0.000000    	1               	;
 I-AV-212        	978.9000    	0.000000    	1               	;
 I-AV-213        	1211.0000   	0.000000    	1               	;
 I-AV-214        	847.0000    	0.000000    	1               	;
 I-AV-215        	867.6000    	0.000000    	1               	;
 I-AV-216        	902.6000    	0.000000    	1               	;
 I-AV-217        	901.9000    	0.000000    	1               	;
 I-AV-218        	927.3000    	0.000000    	1               	;
 I-AV-219        	929.7000    	0.000000    	1               	;
 I-AV-220        	835.1000    	0.000000    	1               	;
 I-AV-221        	874.5000    	0.000000    	1               	;
 I-AV-222        	1095.6000   	0.000000    	1               	;
 I-AV-224        	1271.0000   	0.000000    	1               	;
 I-AV-225        	960.1000    	0.000000    	1               	;
 I-AV-226        	1234.8000   	0.000000    	1               	;
 I-AV-227        	1195.1000   	0.000000    	1               	;
 I-AV-228        	1193.2000   	0.000000    	1               	;
 I-AV-229        	1193.7000   	0.000000    	1               	;
 I-AV-23         	937.2000    	0.000000    	1               	;
 I-AV-230        	1194.5000   	0.000000    	1               	;
 I-AV-231        	1314.2000   	0.000000    	1               	;
 I-AV-232        	1250.3000   	0.000000    	1               	;
 I-AV-233        	1249.8000   	0.000000    	1               	;
 I-AV-234        	1370.8000   	0.000000    	1               	;
 I-AV-235        	1136.9000   	0.000000    	1               	;
 I-AV-236        	1118.5000   	0.000000    	1               	;
 I-AV-237        	1112.9000   	0.000000    	1               	;
 I-AV-238        	1221.8000   	0.000000    	1               	;
 I-AV-239        	1505.8000   	0.000000    	1               	;
 I-AV-24         	1192.7000   	0.000000    	1               	;
 I-AV-240        	1097.8000   	0.000000    	1               	;
 I-AV-241        	1109.8000   	0.000000    	1               	;
 I-AV-242        	1112.3000   	0.000000    	1               	;
 I-AV-243        	1113.8000   	0.000000    	1               	;
 I-AV-244        	1241.5000   	0.000000    	1               	;
 I-AV-245        	1326.8000   	0.000000    	1               	;
 I-AV-246        	1072.3000   	0.000000    	1               	;
 I-AV-247        	888.1000    	0.000000    	1               	;
 I-AV-248        	888.2000    	0.000000    	1               	;
 I-AV-249        	888.7000    	0.000000    	1               	;
 I-AV-25         	1208.3000   	0.000000    	1               	;
 I-AV-250        	1228.1000   	0.000000    	1               	;
 I-AV-251        	929.9000    	0.000000    	1               	;
 I-AV-252        	1721.1000   	0.000000    	1               	;
 I-AV-253        	932.6000    	0.000000    	1               	;
 I-AV-254        	962.2000    	0.000000    	1               	;
 I-AV-255        	972.3000    	0.000000    	1               	;
 I-AV-256        	986.8000    	0.000000    	1               	;
 I-AV-257        	1069.4000   	0.000000    	1               	;
 I-AV-258        	981.7000    	0.000000    	1               	;
 I-AV-259        	1066.8000   	0.000000    	1               	;
 I-AV-26         	941.2000    	0.000000    	1               	;
 I-AV-260        	1028.9000   	0.000000    	1               	;
 I-AV-261        	1105.2000   	0.000000    	1               	;
 I-AV-262        	934.6000    	0.000000    	1               	;
 I-AV-263        	1196.6000   	0.000000    	1               	;
 I-AV-264        	1108.0000   	0.000000    	1               	;
 I-AV-265        	1102.7000   	0.000000    	1               	;
 I-AV-266        	1358.4000   	0.000000    	1               	;
 I-AV-267        	1159.3000   	0.000000    	1               	;
 I-AV-268        	1113.3000   	0.000000    	1               	;
 I-AV-269        	1158.4000   	0.000000    	1               	;
 I-AV-27         	968.5000    	0.000000    	1               	;
 I-AV-270        	1158.1000   	0.000000    	1               	;
 I-AV-271        	1172.5000   	0.000000    	1               	;
 I-AV-272        	1218.4000   	0.000000    	1               	;
 I-AV-273        	1273.4000   	0.000000    	1               	;
 I-AV-274        	1066.8000   	0.000000    	1               	;
 I-AV-275        	1252.0000   	0.000000    	1               	;
 I-AV-276        	1176.5000   	0.000000    	1               	;
 I-AV-277        	1166.2000   	0.000000    	1               	;
 I-AV-278        	1166.0000   	0.000000    	1               	;
 I-AV-279        	1047.6000   	0.000000    	1               	;
 I-AV-28         	970.3000    	0.000000    	1               	;
 I-AV-280        	1363.0000   	0.000000    	1               	;
 I-AV-281        	1166.0000   	0.000000    	1               	;
 I-AV-282        	1161.6000   	0.000000    	1               	;
 I-AV-283        	1165.2000   	0.000000    	1               	;
 I-AV-284        	1197.3000   	0.000000    	1               	;
 I-AV-286        	1072.3000   	0.000000    	1               	;
 I-AV-287        	1180.6000   	0.000000    	1               	;
 I-AV-288        	1235.0000   	0.000000    	1               	;
 I-AV-289        	1093.6000   	0.000000    	1               	;
 I-AV-29         	1020.5000   	0.000000    	1               	;
 I-AV-290        	1159.3000   	0.000000    	1               	;
 I-AV-291        	1252.1000   	0.000000    	1               	;
 I-AV-292        	1072.6000   	0.000000    	1               	;
 I-AV-293        	1082.4000   	0.000000    	1               	;
 I-AV-294        	1206.8000   	0.000000    	1               	;
 I-AV-295        	1186.5000   	0.000000    	1               	;
 I-AV-296        	1076.5000   	0.000000    	1               	;
 I-AV-297        	1076.1000   	0.000000    	1               	;
 I-AV-298        	1078.5000   	0.000000    	1               	;
 I-AV-3          	1145.8000   	0.000000    	1               	;
 I-AV-300        	1077.8000   	0.000000    	1               	;
 I-AV-301        	1081.7000   	0.000000    	1               	;
 I-AV-302        	1078.2000   	0.000000    	1               	;
 I-AV-303        	1135.0000   	0.000000    	1               	;
 I-AV-304        	1134.7000   	0.000000    	1               	;
 I-AV-305        	1179.2000   	0.000000    	1               	;
 I-AV-306        	1270.6000   	0.000000    	1               	;
 I-AV-307        	1093.2000   	0.000000    	1               	;
 I-AV-308        	1270.2000   	0.000000    	1               	;
 I-AV-309        	1272.7000   	0.000000    	1               	;
 I-AV-310        	1625.0000   	0.000000    	1               	;
 I-AV-312        	945.2000    	0.000000    	1               	;
 I-AV-313        	1610.6000   	0.000000    	1               	;
 I-AV-314        	1227.7000   	0.000000    	1               	;
 I-AV-315        	1225.3000   	0.000000    	1               	;
 I-AV-316        	1205.2000   	0.000000    	1               	;
 I-AV-317        	1197.2000   	0.000000    	1               	;
 I-AV-318        	1196.8000   	0.000000    	1               	;
 I-AV-319        	1134.5000   	0.000000    	1               	;
 I-AV-320        	1122.8000   	0.000000    	1               	;
 I-AV-321        	1101.9000   	0.000000    	1               	;
 I-AV-322        	1051.6000   	0.000000    	1               	;
 I-AV-323        	791.9000    	0.000000    	1               	;
 I-AV-325        	1065.1000   	0.000000    	1               	;
 I-AV-326        	1051.9000   	0.000000    	1               	;
 I-AV-327        	1017.5000   	0.000000    	1               	;
 I-AV-328        	1008.1000   	0.000000    	1               	;
 I-AV-329        	1010.0000   	0.000000    	1               	;
 I-AV-330        	1009.9000   	0.000000    	1               	;
 I-AV-331        	1017.5000   	0.000000    	1               	;
 I-AV-332        	1013.2000   	0.000000    	1               	;
 I-AV-333        	1067.1000   	0.000000    	1               	;
 I-AV-335        	864.6000    	0.000000    	1               	;
 I-AV-336        	1021.2000   	0.000000    	1               	;
 I-AV-337        	1184.1000   	0.000000    	1               	;
 I-AV-338        	1013.5000   	0.000000    	1               	;
 I-AV-339        	1002.5000   	0.000000    	1               	;
 I-AV-34         	978.4000    	0.000000    	1               	;
 I-AV-340        	1074.7000   	0.000000    	1               	;
 I-AV-341        	1075.3000   	0.000000    	1               	;
 I-AV-342        	1138.5000   	0.000000    	1               	;
 I-AV-343        	1137.8000   	0.000000    	1               	;
 I-AV-344        	996.9000    	0.000000    	1               	;
 I-AV-345        	1001.2000   	0.000000    	1               	;
 I-AV-346        	802.2000    	0.000000    	1               	;
 I-AV-347        	984.0000    	0.000000    	1               	;
 I-AV-348        	984.3000    	0.000000    	1               	;
 I-AV-35         	1034.2000   	0.000000    	1               	;
 I-AV-350        	1080.9000   	0.000000    	1               	;
 I-AV-351        	1059.7000   	0.000000    	1               	;
 I-AV-353        	969.4000    	0.000000    	1               	;
 I-AV-354        	960.1000    	0.000000    	1               	;
 I-AV-355        	960.6000    	0.000000    	1               	;
 I-AV-356        	955.1000    	0.000000    	1               	;
 I-AV-357        	787.6000    	0.000000    	1               	;
 I-AV-358        	959.4000    	0.000000    	1               	;
 I-AV-359        	954.9000    	0.000000    	1               	;
 I-AV-36         	984.5000    	0.000000    	1               	;
 I-AV-360        	1035.3000   	0.000000    	1               	;
 I-AV-361        	1034.5000   	0.000000    	1               	;
 I-AV-364        	920.2000    	0.000000    	1               	;
 I-AV-365        	1152.6000   	0.000000    	1               	;
 I-AV-366        	1110.5000   	0.000000    	1               	;
 I-AV-367        	1100.6000   	0.000000    	1               	;
 I-AV-368        	787.5000    	0.000000    	1               	;
 I-AV-369        	1098.6000   	0.000000    	1               	;
 I-AV-37         	995.7000    	0.000000    	1               	;
 I-AV-370        	1102.3000   	0.000000    	1               	;
 I-AV-371        	1114.3000   	0.000000    	1               	;
 I-AV-372        	1114.2000   	0.000000    	1               	;
 I-AV-373        	1125.2000   	0.000000    	1               	;
 I-AV-374        	1085.9000   	0.000000    	1               	;
 I-AV-375        	1048.8000   	0.000000    	1               	;
 I-AV-376        	941.8000    	0.000000    	1               	;
 I-AV-377        	1083.3000   	0.000000    	1               	;
 I-AV-378        	1084.8000   	0.000000    	1               	;
 I-AV-379        	788.1000    	0.000000    	1               	;
 I-AV-38         	1213.7000   	0.000000    	1               	;
 I-AV-380        	1072.4000   	0.000000    	1               	;
 I-AV-381        	1130.7000   	0.000000    	1               	;
 I-AV-382        	1127.4000   	0.000000    	1               	;
 I-AV-383        	1142.2000   	0.000000    	1               	;
 I-AV-384        	1130.8000   	0.000000    	1               	;
 I-AV-385        	1186.6000   	0.000000    	1               	;
 I-AV-388        	957.5000    	0.000000    	1               	;
 I-AV-389        	1058.1000   	0.000000    	1               	;
 I-AV-39         	1048.4000   	0.000000    	1               	;
 I-AV-390        	780.7000    	0.000000    	1               	;
 I-AV-393        	1098.3000   	0.000000    	1               	;
 I-AV-394        	1098.5000   	0.000000    	1               	;
 I-AV-395        	1098.5000   	0.000000    	1               	;
 I-AV-396        	1102.7000   	0.000000    	1               	;
 I-AV-398        	1132.8000   	0.000000    	1               	;
 I-AV-399        	1136.4000   	0.000000    	1               	;
 I-AV-40         	1045.3000   	0.000000    	1               	;
 I-AV-400        	952.8000    	0.000000    	1               	;
 I-AV-401        	1081.0000   	0.000000    	1               	;
 I-AV-402        	1142.2000   	0.000000    	1               	;
 I-AV-403        	1057.0000   	0.000000    	1               	;
 I-AV-404        	1140.7000   	0.000000    	1               	;
 I-AV-405        	1157.2000   	0.000000    	1               	;
 I-AV-407        	1172.5000   	0.000000    	1               	;
 I-AV-408        	1128.9000   	0.000000    	1               	;
 I-AV-409        	1119.6000   	0.000000    	1               	;
 I-AV-41         	1090.1000   	0.000000    	1               	;
 I-AV-410        	1110.1000   	0.000000    	1               	;
 I-AV-411        	1126.9000   	0.000000    	1               	;
 I-AV-412        	763.5000    	0.000000    	1               	;
 I-AV-413        	1003.9000   	0.000000    	1               	;
 I-AV-414        	1125.8000   	0.000000    	1               	;
 I-AV-416        	1039.0000   	0.000000    	1               	;
 I-AV-418        	1125.2000   	0.000000    	1               	;
 I-AV-42         	1019.6000   	0.000000    	1               	;
 I-AV-420        	1115.1000   	0.000000    	1               	;
 I-AV-421        	1115.1000   	0.000000    	1               	;
 I-AV-422        	1132.3000   	0.000000    	1               	;
 I-AV-423        	741.3000    	0.000000    	1               	;
 I-AV-424        	1134.3000   	0.000000    	1               	;
 I-AV-425        	1104.7000   	0.000000    	1               	;
 I-AV-427        	741.3000    	0.000000    	1               	;
 I-AV-428        	765.8000    	0.000000    	1               	;
 I-AV-429        	758.2000    	0.000000    	1               	;
 I-AV-430        	813.5000    	0.000000    	1               	;
 I-AV-431        	735.0000    	0.000000    	1               	;
 I-AV-432        	936.2000    	0.000000    	1               	;
 I-AV-433        	929.1000    	0.000000    	1               	;
 I-AV-434        	1082.6000   	0.000000    	1               	;
 I-AV-435        	1122.9000   	0.000000    	1               	;
 I-AV-436        	1254.3000   	0.000000    	1               	;
 I-AV-437        	1093.2000   	0.000000    	1               	;
 I-AV-438        	1253.5000   	0.000000    	1               	;
 I-AV-439        	1106.8000   	0.000000    	1               	;
 I-AV-44         	1027.6000   	0.000000    	1               	;
 I-AV-441        	1051.3000   	0.000000    	1               	;
 I-AV-442        	1051.7000   	0.000000    	1               	;
 I-AV-443        	1051.3000   	0.000000    	1               	;
 I-AV-444        	951.9000    	0.000000    	1               	;
 I-AV-445        	1051.7000   	0.000000    	1               	;
 I-AV-446        	992.8000    	0.000000    	1               	;
 I-AV-447        	1274.3000   	0.000000    	1               	;
 I-AV-448        	1155.1000   	0.000000    	1               	;
 I-AV-449        	1249.9000   	0.000000    	1               	;
 I-AV-450        	1089.5000   	0.000000    	1               	;
 I-AV-451        	1252.4000   	0.000000    	1               	;
 I-AV-454        	1338.3000   	0.000000    	1               	;
 I-AV-456        	1327.0000   	0.000000    	1               	;
 I-AV-457        	1327.0000   	0.000000    	1               	;
 I-AV-458        	992.6000    	0.000000    	1               	;
 I-AV-459        	1164.7000   	0.000000    	1               	;
 I-AV-461        	1077.3000   	0.000000    	1               	;
 I-AV-462        	1084.1000   	0.000000    	1               	;
 I-AV-463        	1082.1000   	0.000000    	1               	;
 I-AV-464        	1054.1000   	0.000000    	1               	;
 I-AV-465        	1133.4000   	0.000000    	1               	;
 I-AV-466        	1195.8000   	0.000000    	1               	;
 I-AV-467        	1159.2000   	0.000000    	1               	;
 I-AV-468        	1161.5000   	0.000000    	1               	;
 I-AV-469        	1159.8000   	0.000000    	1               	;
 I-AV-47         	1047.4000   	0.000000    	1               	;
 I-AV-470        	1199.6000   	0.000000    	1               	;
 I-AV-472        	1153.4000   	0.000000    	1               	;
 I-AV-473        	1222.4000   	0.000000    	1               	;
 I-AV-474        	1330.3000   	0.000000    	1               	;
 I-AV-475        	1330.1000   	0.000000    	1               	;
 I-AV-476        	1215.3000   	0.000000    	1               	;
 I-AV-477        	1330.4000   	0.000000    	1               	;
 I-AV-478        	1336.6000   	0.000000    	1               	;
 I-AV-479        	1363.8000   	0.000000    	1               	;
 I-AV-48         	1036.9000   	0.000000    	1               	;
 I-AV-480        	1342.4000   	0.000000    	1               	;
 I-AV-49         	1062.6000   	0.000000    	1               	;
 I-AV-5          	1145.8000   	0.000000    	1               	;
 I-AV-50         	1100.5000   	0.000000    	1               	;
 I-AV-51         	1583.0000   	0.000000    	1               	;
 I-AV-52         	832.7000    	0.000000    	1               	;
 I-AV-53         	1064.9000   	0.000000    	1               	;
 I-AV-54         	807.6000    	0.000000    	1               	;
 I-AV-55         	1051.5000   	0.000000    	1               	;
 I-AV-56         	1066.9000   	0.000000    	1               	;
 I-AV-58         	1066.7000   	0.000000    	1               	;
 I-AV-59         	1263.2000   	0.000000    	1               	;
 I-AV-6          	1107.6000   	0.000000    	1               	;
 I-AV-60         	1284.6000   	0.000000    	1               	;
 I-AV-61         	1335.0000   	0.000000    	1               	;
 I-AV-62         	1195.8000   	0.000000    	1               	;
 I-AV-63         	1165.9000   	0.000000    	1               	;
 I-AV-64         	1142.6000   	0.000000    	1               	;
 I-AV-65         	1069.2000   	0.000000    	1               	;
 I-AV-66         	1143.4000   	0.000000    	1               	;
 I-AV-67         	1147.6000   	0.000000    	1               	;
 I-AV-68         	1165.6000   	0.000000    	1               	;
 I-AV-69         	1163.5000   	0.000000    	1               	;
 I-AV-7          	1106.8000   	0.000000    	1               	;
 I-AV-70         	1164.4000   	0.000000    	1               	;
 I-AV-71         	1387.4000   	0.000000    	1               	;
 I-AV-72         	1052.2000   	0.000000    	1               	;
 I-AV-73         	1156.1000   	0.000000    	1               	;
 I-AV-74         	1056.2000   	0.000000    	1               	;
 I-AV-75         	1046.1000   	0.000000    	1               	;
 I-AV-76         	1089.3000   	0.000000    	1               	;
 I-AV-77         	1068.6000   	0.000000    	1               	;
 I-AV-78         	1098.8000   	0.000000    	1               	;
 I-AV-79         	1142.0000   	0.000000    	1               	;
 I-AV-8          	1248.4000   	0.000000    	1               	;
 I-AV-80         	1099.4000   	0.000000    	1               	;
 I-AV-81         	1100.3000   	0.000000    	1               	;
 I-AV-82         	1166.5000   	0.000000    	1               	;
 I-AV-83         	1163.3000   	0.000000    	1               	;
 I-AV-84         	1154.1000   	0.000000    	1               	;
 I-AV-85         	1156.7000   	0.000000    	1               	;
 I-AV-86         	1213.3000   	0.000000    	1               	;
 I-AV-87         	1444.6000   	0.000000    	1               	;
 I-AV-88         	1077.8000   	0.000000    	1               	;
 I-AV-89         	1066.5000   	0.000000    	1               	;
 I-AV-9          	1248.5000   	0.000000    	1               	;
 I-AV-90         	1093.1000   	0.000000    	1               	;
 I-AV-91         	1078.0000   	0.000000    	1               	;
 I-AV-92         	1077.6000   	0.000000    	1               	;
 I-AV-93         	1078.0000   	0.000000    	1               	;
 I-AV-94         	1112.7000   	0.000000    	1               	;
 I-AV-95         	1168.9000   	0.000000    	1               	;
 I-AV-96         	1085.0000   	0.000000    	1               	;
 I-AV-97         	1519.3000   	0.000000    	1               	;
 I-AV-98         	1090.3000   	0.000000    	1               	;
 I-AV-99         	1144.7000   	0.000000    	1               	;
 I-Dry_Creek     	810.1000    	0.000000    	1               	;
 I-Elk_Glenn     	1061.0000   	0.000000    	1               	;
 I-Hollybush     	997.1000    	0.000000    	1               	;
 O-HWY_80a       	1251.6000   	0.000000    	1               	;
 J-1             	1147.6000   	1.600000    	1               	;
 J-10            	1093.6000   	1.300000    	1               	;
 J-100           	1033.8000   	0.100000    	1               	;
 J-1000          	1040.6000   	0.500000    	1               	;
 J-1001          	1040.7000   	0.100000    	1               	;
 J-1003          	1040.8000   	0.200000    	1               	;
 J-1005          	1146.3000   	0.500000    	1               	;
 J-1006          	1056.6000   	0.000000    	1               	;
 J-1007          	1277.3000   	0.000000    	1               	;
 J-1008          	1194.9000   	1.500000    	1               	;
 J-1009          	1143.9000   	0.400000    	1               	;
 J-101           	1096.8000   	1.700000    	1               	;
 J-1010          	1191.9000   	0.400000    	1               	;
 J-1011          	1135.0000   	0.100000    	1               	;
 J-1012          	1070.1000   	0.300000    	1               	;
 J-1013          	1095.6000   	0.700000    	1               	;
 J-1014          	1103.7000   	0.400000    	1               	;
 J-1017          	1100.1000   	0.600000    	1               	;
 J-102           	1175.7000   	2.800000    	1               	;
 J-1020          	1219.0000   	0.400000    	1               	;
 J-1022          	1144.5000   	0.800000    	1               	;
 J-1023          	817.4000    	1.000000    	1               	;
 J-1024          	813.6000    	0.700000    	1               	;
 J-1026          	816.4000    	0.100000    	1               	;
 J-1027          	1184.1000   	0.000000    	1               	;
 J-1028          	1184.4000   	0.000000    	1               	;
 J-1029          	1184.7000   	0.000000    	1               	;
 J-103           	1169.5000   	4.600000    	1               	;
 J-1032          	1491.3000   	0.000000    	1               	;
 J-1033          	1093.1000   	0.200000    	1               	;
 J-1035          	1115.0000   	0.900000    	1               	;
 J-1037          	1102.9000   	0.900000    	1               	;
 J-104           	1164.1000   	0.000000    	1               	;
 J-1040          	1078.4000   	0.700000    	1               	;
 J-1044          	1109.0000   	1.100000    	1               	;
 J-1045          	1138.7000   	1.000000    	1               	;
 J-1047          	1164.4000   	0.700000    	1               	;
 J-1048          	1205.5000   	1.100000    	1               	;
 J-1049          	1206.0000   	0.000000    	1               	;
 J-105           	835.5000    	2.500000    	1               	;
 J-1051          	1176.1000   	0.600000    	1               	;
 J-1053          	1112.3000   	0.700000    	1               	;
 J-1054          	1143.5000   	1.600000    	1               	;
 J-1055          	1084.5000   	1.100000    	1               	;
 J-1056          	1158.1000   	0.100000    	1               	;
 J-1057          	1171.3000   	0.300000    	1               	;
 J-1058          	997.4000    	0.500000    	1               	;
 J-106           	1056.4000   	2.500000    	1               	;
 J-1060          	1574.8000   	0.200000    	1               	;
 J-1061          	1538.7000   	0.400000    	1               	;
 J-1062          	1607.6000   	0.200000    	1               	;
 J-1063          	1607.6000   	0.200000    	1               	;
 J-1064          	1636.4000   	0.200000    	1               	;
 J-1065          	1049.2000   	0.100000    	1               	;
 J-1068          	1032.8000   	0.100000    	1               	;
 J-107           	1322.2000   	1.800000    	1               	;
 J-1070          	879.3000    	1.000000    	1               	;
 J-1073          	974.4000    	1.000000    	1               	;
 J-1074          	1230.3000   	0.300000    	1               	;
 J-1075          	1263.1000   	0.000000    	1               	;
 J-1076          	1177.8000   	4.500000    	1               	;
 J-1079          	1066.3000   	0.800000    	1               	;
 J-108           	1279.7000   	1.800000    	1               	;
 J-1080          	1066.3000   	1.800000    	1               	;
 J-1081          	1204.1000   	0.300000    	1               	;
 J-1082          	1184.4000   	0.600000    	1               	;
 J-1083          	941.6000    	0.700000    	1               	;
 J-1084          	994.1000    	1.100000    	1               	;
 J-1085          	941.6000    	1.100000    	1               	;
 J-1086          	931.8000    	0.800000    	1               	;
 J-1087          	941.6000    	0.300000    	1               	;
 J-1088          	938.3000    	0.200000    	1               	;
 J-109           	1135.2000   	0.700000    	1               	;
 J-1090          	931.8000    	1.600000    	1               	;
 J-1091          	1063.0000   	0.800000    	1               	;
 J-1092          	1141.7000   	0.400000    	1               	;
 J-1093          	1053.2000   	0.900000    	1               	;
 J-1095          	1043.3000   	0.600000    	1               	;
 J-1097          	1036.8000   	2.300000    	1               	;
 J-1098          	1206.6000   	1.600000    	1               	;
 J-1099          	1157.3000   	1.800000    	1               	;
 J-11            	1013.8000   	0.800000    	1               	;
 J-110           	1210.6000   	0.300000    	1               	;
 J-1101          	1206.6000   	0.300000    	1               	;
 J-1102          	1265.6000   	0.600000    	1               	;
 J-1105          	1183.6000   	0.700000    	1               	;
 J-111           	1255.9000   	6.300000    	1               	;
 J-1111          	1092.5000   	4.400000    	1               	;
 J-1112          	1236.9000   	3.700000    	1               	;
 J-1113          	1076.1000   	1.500000    	1               	;
 J-1114          	1122.1000   	0.200000    	1               	;
 J-1115          	1131.9000   	1.800000    	1               	;
 J-1116          	1174.5000   	1.600000    	1               	;
 J-1117          	1131.9000   	2.600000    	1               	;
 J-1119          	1040.0000   	1.000000    	1               	;
 J-112           	1260.9000   	1.500000    	1               	;
 J-1122          	1072.8000   	0.700000    	1               	;
 J-1125          	974.4000    	0.700000    	1               	;
 J-1128          	1135.2000   	0.900000    	1               	;
 J-1129          	1148.3000   	2.300000    	1               	;
 J-113           	826.8000    	1.300000    	1               	;
 J-1130          	1213.9000   	1.400000    	1               	;
 J-1131          	1213.9000   	1.500000    	1               	;
 J-1132          	1125.3000   	0.300000    	1               	;
 J-1133          	1125.3000   	0.000000    	1               	;
 J-1135          	1210.6000   	3.100000    	1               	;
 J-1136          	1161.4000   	0.500000    	1               	;
 J-1137          	1135.2000   	0.800000    	1               	;
 J-1138          	1236.9000   	2.200000    	1               	;
 J-1139          	1161.4000   	0.700000    	1               	;
 J-114           	885.8000    	0.800000    	1               	;
 J-1140          	1158.1000   	0.500000    	1               	;
 J-1141          	1312.3000   	1.000000    	1               	;
 J-1142          	1158.1000   	0.100000    	1               	;
 J-1143          	1158.1000   	0.000000    	1               	;
 J-1144          	1197.5000   	0.500000    	1               	;
 J-1145          	951.4000    	0.900000    	1               	;
 J-1149          	941.6000    	1.500000    	1               	;
 J-115           	1270.7000   	3.600000    	1               	;
 J-1150          	941.6000    	0.000000    	1               	;
 J-1151          	1131.9000   	0.500000    	1               	;
 J-1152          	1103.3000   	0.700000    	1               	;
 J-1153          	1103.3000   	0.500000    	1               	;
 J-1154          	1042.7000   	0.500000    	1               	;
 J-1155          	1045.9000   	0.000000    	1               	;
 J-1156          	1045.0000   	6.400000    	1               	;
 J-1157          	1079.4000   	0.400000    	1               	;
 J-1159          	1158.1000   	1.900000    	1               	;
 J-116           	1076.1000   	0.200000    	1               	;
 J-1160          	1227.0000   	0.800000    	1               	;
 J-1161          	1138.5000   	1.000000    	1               	;
 J-1164          	1246.3000   	0.700000    	1               	;
 J-1166          	1210.6000   	0.200000    	1               	;
 J-1168          	1227.0000   	1.300000    	1               	;
 J-1169          	1269.7000   	2.200000    	1               	;
 J-117           	1082.7000   	1.900000    	1               	;
 J-1170          	1228.7000   	0.900000    	1               	;
 J-1172          	1174.5000   	0.400000    	1               	;
 J-1174          	1197.5000   	0.600000    	1               	;
 J-1176          	1253.3000   	1.700000    	1               	;
 J-1178          	1310.8000   	0.000000    	1               	;
 J-1179          	1310.8000   	0.000000    	1               	;
 J-118           	1063.0000   	2.100000    	1               	;
 J-1180          	1353.4000   	0.000000    	1               	;
 J-1181          	1353.4000   	0.000000    	1               	;
 J-1184          	1212.3000   	2.700000    	1               	;
 J-1185          	1246.5000   	1.300000    	1               	;
 J-1187          	1201.5000   	1.200000    	1               	;
 J-1188          	1204.1000   	2.200000    	1               	;
 J-1189          	1286.1000   	1.100000    	1               	;
 J-119           	1059.7000   	2.400000    	1               	;
 J-1190          	1171.3000   	0.100000    	1               	;
 J-1192          	1168.0000   	0.100000    	1               	;
 J-1193          	941.6000    	1.200000    	1               	;
 J-1194          	915.4000    	0.600000    	1               	;
 J-1196          	954.7000    	0.100000    	1               	;
 J-1197          	954.7000    	0.000000    	1               	;
 J-1198          	1089.2000   	1.200000    	1               	;
 J-12            	1190.7000   	1.200000    	1               	;
 J-120           	1122.1000   	0.800000    	1               	;
 J-1200          	974.4000    	1.600000    	1               	;
 J-1201          	1069.6000   	2.200000    	1               	;
 J-1202          	1017.1000   	0.300000    	1               	;
 J-1204          	1194.2000   	1.200000    	1               	;
 J-1206          	984.3000    	1.500000    	1               	;
 J-1207          	1145.0000   	0.000000    	1               	;
 J-1208          	977.7000    	1.100000    	1               	;
 J-1209          	1020.3000   	0.700000    	1               	;
 J-121           	1175.2000   	0.000000    	1               	;
 J-1210          	977.7000    	0.300000    	1               	;
 J-1211          	984.3000    	0.300000    	1               	;
 J-1212          	977.7000    	0.400000    	1               	;
 J-1213          	1020.3000   	0.000000    	1               	;
 J-1214          	974.4000    	0.100000    	1               	;
 J-1215          	977.7000    	0.000000    	1               	;
 J-1216          	984.3000    	0.000000    	1               	;
 J-1217          	1092.5000   	1.400000    	1               	;
 J-1218          	1141.7000   	0.900000    	1               	;
 J-1219          	1151.6000   	0.500000    	1               	;
 J-122           	1155.5000   	0.000000    	1               	;
 J-1221          	1190.9000   	0.800000    	1               	;
 J-1222          	1287.8000   	0.800000    	1               	;
 J-1223          	1204.1000   	0.900000    	1               	;
 J-1225          	1013.8000   	0.000000    	1               	;
 J-1227          	1049.9000   	0.300000    	1               	;
 J-1229          	1105.6000   	0.500000    	1               	;
 J-123           	1184.4000   	1.100000    	1               	;
 J-1230          	1350.1000   	0.300000    	1               	;
 J-1237          	1069.6000   	0.000000    	1               	;
 J-1238          	1072.8000   	0.500000    	1               	;
 J-1239          	1072.8000   	0.000000    	1               	;
 J-124           	1095.8000   	1.000000    	1               	;
 J-1240          	1072.8000   	0.000000    	1               	;
 J-1241          	1069.6000   	0.000000    	1               	;
 J-1243          	1213.9000   	2.400000    	1               	;
 J-1244          	1233.6000   	1.600000    	1               	;
 J-1245          	1446.9000   	1.000000    	1               	;
 J-1247          	1207.3000   	0.100000    	1               	;
 J-1249          	1213.9000   	0.000000    	1               	;
 J-125           	1217.2000   	1.200000    	1               	;
 J-1250          	1213.9000   	0.000000    	1               	;
 J-1251          	1213.9000   	0.000000    	1               	;
 J-1252          	1095.8000   	0.200000    	1               	;
 J-1253          	1138.5000   	0.300000    	1               	;
 J-1254          	1095.8000   	0.400000    	1               	;
 J-1256          	1089.2000   	0.000000    	1               	;
 J-1257          	1053.2000   	0.000000    	1               	;
 J-126           	1289.4000   	0.700000    	1               	;
 J-1260          	1053.2000   	0.300000    	1               	;
 J-1261          	1076.1000   	0.300000    	1               	;
 J-1267          	1262.5000   	2.000000    	1               	;
 J-1269          	1145.0000   	0.100000    	1               	;
 J-127           	1300.7000   	3.900000    	1               	;
 J-1271          	1256.6000   	2.700000    	1               	;
 J-1272          	521.9000    	0.600000    	1               	;
 J-1275          	836.6000    	1.800000    	1               	;
 J-1276          	846.5000    	1.400000    	1               	;
 J-1277          	1177.8000   	1.600000    	1               	;
 J-1278          	997.4000    	2.000000    	1               	;
 J-1279          	1053.2000   	0.800000    	1               	;
 J-128           	1069.6000   	5.400000    	1               	;
 J-1280          	1053.2000   	0.000000    	1               	;
 J-1282          	1013.8000   	0.500000    	1               	;
 J-1283          	1013.8000   	0.200000    	1               	;
 J-1285          	1161.4000   	0.000000    	1               	;
 J-1287          	1101.7000   	6.600000    	1               	;
 J-1288          	876.0000    	1.200000    	1               	;
 J-1289          	876.0000    	0.500000    	1               	;
 J-129           	1210.8000   	0.000000    	1               	;
 J-1291          	1079.4000   	0.300000    	1               	;
 J-1293          	1079.4000   	0.000000    	1               	;
 J-1294          	1079.4000   	0.300000    	1               	;
 J-1295          	1079.4000   	0.000000    	1               	;
 J-1297          	1205.8000   	3.900000    	1               	;
 J-13            	1683.1000   	0.500000    	1               	;
 J-130           	990.8000    	3.200000    	1               	;
 J-1301          	1315.6000   	1.200000    	1               	;
 J-1303          	1190.9000   	0.000000    	1               	;
 J-1306          	1089.2000   	1.300000    	1               	;
 J-1309          	1135.2000   	1.500000    	1               	;
 J-131           	1131.9000   	3.200000    	1               	;
 J-1311          	1118.0000   	0.700000    	1               	;
 J-1312          	1053.2000   	0.000000    	1               	;
 J-1313          	1141.7000   	0.000000    	1               	;
 J-1314          	1512.5000   	0.000000    	1               	;
 J-1315          	1205.9000   	0.000000    	1               	;
 J-1316          	1205.9000   	0.000000    	1               	;
 J-1318          	787.4000    	0.000000    	1               	;
 J-1319          	833.3000    	0.000000    	1               	;
 J-132           	1099.1000   	0.300000    	1               	;
 J-1320          	810.4000    	0.000000    	1               	;
 J-1321          	816.9000    	0.000000    	1               	;
 J-1322          	761.2000    	0.000000    	1               	;
 J-1323          	859.6000    	0.000000    	1               	;
 J-1324          	1082.7000   	0.000000    	1               	;
 J-1325          	1082.7000   	0.000000    	1               	;
 J-1326          	1023.6000   	0.100000    	1               	;
 J-1327          	1023.6000   	0.000000    	1               	;
 J-1328          	1017.1000   	0.000000    	1               	;
 J-133           	1165.2000   	3.600000    	1               	;
 J-1330          	1118.8000   	0.000000    	1               	;
 J-1331          	741.5000    	0.000000    	1               	;
 J-1332          	1089.2000   	0.000000    	1               	;
 J-1333          	1138.5000   	0.000000    	1               	;
 J-1334          	1095.8000   	0.000000    	1               	;
 J-1335          	1066.3000   	0.000000    	1               	;
 J-1336          	1205.9000   	0.000000    	1               	;
 J-1337          	1186.1000   	0.000000    	1               	;
 J-1338          	1205.8000   	0.000000    	1               	;
 J-1339          	1105.6000   	0.000000    	1               	;
 J-134           	1299.2000   	0.800000    	1               	;
 J-1340          	1236.9000   	4.600000    	1               	;
 J-1341          	1053.2000   	0.000000    	1               	;
 J-1344          	521.9000    	0.000000    	1               	;
 J-1345          	849.7000    	0.000000    	1               	;
 J-1346          	849.7000    	0.000000    	1               	;
 J-1347          	882.6000    	0.000000    	1               	;
 J-1348          	876.0000    	0.000000    	1               	;
 J-1349          	885.8000    	0.000000    	1               	;
 J-135           	1112.5000   	2.600000    	1               	;
 J-1350          	935.0000    	0.000000    	1               	;
 J-1351          	1206.6000   	2.200000    	1               	;
 J-1352          	1165.9000   	2.200000    	1               	;
 J-1353          	1115.0000   	0.000000    	1               	;
 J-1354          	1206.6000   	2.000000    	1               	;
 J-1355          	1193.4000   	0.200000    	1               	;
 J-1356          	1193.4000   	0.000000    	1               	;
 J-1357          	1161.6000   	1.500000    	1               	;
 J-1358          	1213.9000   	0.000000    	1               	;
 J-136           	1114.9000   	0.400000    	1               	;
 J-1360          	1335.9000   	0.500000    	1               	;
 J-1362          	1127.8000   	0.000000    	1               	;
 J-1363          	1114.7000   	1.900000    	1               	;
 J-1364          	1164.7000   	0.000000    	1               	;
 J-1365          	1335.9000   	0.000000    	1               	;
 J-1366          	1335.9000   	0.000000    	1               	;
 J-1367          	1256.8000   	1.300000    	1               	;
 J-1368          	1069.6000   	0.000000    	1               	;
 J-1369          	1141.7000   	0.000000    	1               	;
 J-137           	1107.5000   	0.100000    	1               	;
 J-1371          	849.7000    	13.100000   	1               	;
 J-1372          	843.2000    	4.100000    	1               	;
 J-1373          	843.2000    	0.000000    	1               	;
 J-1375          	741.5000    	3.600000    	1               	;
 J-1376          	767.7000    	0.000000    	1               	;
 J-1377          	810.4000    	0.000000    	1               	;
 J-1378          	902.2000    	0.000000    	1               	;
 J-1379          	1266.0000   	0.000000    	1               	;
 J-138           	1233.6000   	4.600000    	1               	;
 J-1380          	1266.0000   	1.000000    	1               	;
 J-1381          	1215.6000   	0.000000    	1               	;
 J-1382          	1118.8000   	0.000000    	1               	;
 J-1383          	1213.9000   	0.000000    	1               	;
 J-1384          	1161.6000   	0.000000    	1               	;
 J-1385          	1148.3000   	1.100000    	1               	;
 J-1386          	1181.1000   	0.800000    	1               	;
 J-1387          	1181.1000   	0.000000    	1               	;
 J-1388          	1184.4000   	0.300000    	1               	;
 J-1389          	1184.4000   	0.000000    	1               	;
 J-139           	1391.1000   	3.400000    	1               	;
 J-1390          	1168.0000   	0.700000    	1               	;
 J-1394          	1252.5000   	0.300000    	1               	;
 J-1395          	1174.5000   	0.000000    	1               	;
 J-1396          	777.6000    	1.300000    	1               	;
 J-1397          	1079.4000   	0.200000    	1               	;
 J-1398          	1056.4000   	4.100000    	1               	;
 J-1399          	1357.6000   	4.100000    	1               	;
 J-14            	1476.4000   	1.500000    	1               	;
 J-140           	1020.3000   	0.100000    	1               	;
 J-1400          	938.3000    	0.000000    	1               	;
 J-1401          	971.1000    	0.000000    	1               	;
 J-1402          	928.5000    	0.000000    	1               	;
 J-1403          	931.8000    	0.000000    	1               	;
 J-1404          	931.8000    	0.000000    	1               	;
 J-1405          	1253.3000   	0.000000    	1               	;
 J-1406          	1210.6000   	0.000000    	1               	;
 J-1407          	1177.8000   	0.800000    	1               	;
 J-1408          	1217.2000   	0.200000    	1               	;
 J-1409          	1177.8000   	0.000000    	1               	;
 J-141           	1013.8000   	0.100000    	1               	;
 J-1410          	1217.2000   	0.000000    	1               	;
 J-1411          	1279.5000   	0.200000    	1               	;
 J-1412          	1279.5000   	0.000000    	1               	;
 J-1413          	1053.2000   	0.000000    	1               	;
 J-1414          	1043.3000   	0.000000    	1               	;
 J-1415          	1003.9000   	0.000000    	1               	;
 J-1416          	1033.5000   	0.000000    	1               	;
 J-1417          	1000.7000   	0.000000    	1               	;
 J-1418          	1003.9000   	0.000000    	1               	;
 J-1419          	1010.5000   	0.000000    	1               	;
 J-142           	1066.3000   	2.300000    	1               	;
 J-1420          	974.4000    	0.000000    	1               	;
 J-1421          	971.1000    	0.000000    	1               	;
 J-1422          	987.5000    	0.000000    	1               	;
 J-1423          	1017.1000   	0.000000    	1               	;
 J-1424          	1069.6000   	0.000000    	1               	;
 J-1425          	1194.2000   	0.000000    	1               	;
 J-1426          	830.1000    	0.000000    	1               	;
 J-1427          	862.9000    	0.000000    	1               	;
 J-1428          	767.7000    	1.000000    	1               	;
 J-1429          	767.7000    	0.000000    	1               	;
 J-143           	1053.2000   	1.900000    	1               	;
 J-1430          	794.0000    	0.000000    	1               	;
 J-1431          	826.8000    	0.000000    	1               	;
 J-1432          	889.1000    	0.000000    	1               	;
 J-1433          	1276.3000   	0.000000    	1               	;
 J-1434          	1374.7000   	0.500000    	1               	;
 J-1435          	1374.7000   	0.000000    	1               	;
 J-1436          	1168.0000   	0.000000    	1               	;
 J-1437          	1000.7000   	0.000000    	1               	;
 J-1438          	1040.0000   	0.000000    	1               	;
 J-144           	1047.7000   	1.000000    	1               	;
 J-1440          	1213.1000   	0.600000    	1               	;
 J-1441          	879.3000    	0.000000    	1               	;
 J-1442          	849.7000    	0.000000    	1               	;
 J-1443          	905.5000    	0.000000    	1               	;
 J-1444          	1000.7000   	0.000000    	1               	;
 J-1445          	918.6000    	0.000000    	1               	;
 J-1446          	899.0000    	0.000000    	1               	;
 J-1447          	908.8000    	0.000000    	1               	;
 J-1448          	1049.9000   	0.000000    	1               	;
 J-1449          	1187.7000   	0.000000    	1               	;
 J-145           	1076.4000   	0.600000    	1               	;
 J-1450          	1240.4000   	0.000000    	1               	;
 J-1451          	1099.1000   	1.700000    	1               	;
 J-1452          	1099.1000   	0.000000    	1               	;
 J-1453          	1177.8000   	0.000000    	1               	;
 J-1454          	1200.8000   	0.000000    	1               	;
 J-1455          	1368.1000   	0.000000    	1               	;
 J-1456          	895.7000    	0.000000    	1               	;
 J-1457          	889.1000    	0.000000    	1               	;
 J-1458          	925.2000    	0.000000    	1               	;
 J-1459          	908.8000    	0.000000    	1               	;
 J-146           	1210.6000   	0.900000    	1               	;
 J-1460          	941.6000    	0.000000    	1               	;
 J-1461          	1250.0000   	0.100000    	1               	;
 J-1462          	1250.0000   	0.000000    	1               	;
 J-1463          	1169.7000   	0.000000    	1               	;
 J-1465          	1141.7000   	0.000000    	1               	;
 J-1466          	1194.2000   	0.000000    	1               	;
 J-1467          	1247.5000   	0.000000    	1               	;
 J-1468          	1197.5000   	0.000000    	1               	;
 J-1469          	925.2000    	0.000000    	1               	;
 J-147           	1151.6000   	0.200000    	1               	;
 J-1470          	1040.0000   	0.000000    	1               	;
 J-1471          	1000.7000   	0.000000    	1               	;
 J-1472          	1213.9000   	0.000000    	1               	;
 J-1473          	1164.7000   	0.000000    	1               	;
 J-1474          	1141.7000   	0.000000    	1               	;
 J-1475          	1227.0000   	0.000000    	1               	;
 J-1476          	990.8000    	0.000000    	1               	;
 J-1477          	1143.0000   	0.000000    	1               	;
 J-148           	918.6000    	0.700000    	1               	;
 J-1480          	1286.1000   	0.000000    	1               	;
 J-1481          	1049.9000   	0.000000    	1               	;
 J-1482          	1059.7000   	0.000000    	1               	;
 J-1483          	1141.7000   	0.000000    	1               	;
 J-1484          	1043.3000   	0.400000    	1               	;
 J-1485          	1053.2000   	0.000000    	1               	;
 J-1486          	1049.4000   	0.800000    	1               	;
 J-1487          	1428.1000   	0.000000    	1               	;
 J-149           	899.2000    	0.500000    	1               	;
 J-1490          	815.3000    	0.000000    	1               	;
 J-1491          	812.5000    	0.000000    	1               	;
 J-1492          	813.4000    	0.000000    	1               	;
 J-1493          	1211.8000   	0.000000    	1               	;
 J-1494          	1211.5000   	0.500000    	1               	;
 J-1495          	1215.8000   	0.000000    	1               	;
 J-1496          	1223.5000   	0.200000    	1               	;
 J-1497          	1223.8000   	0.000000    	1               	;
 J-1498          	1210.6000   	0.000000    	1               	;
 J-1499          	1236.0000   	0.800000    	1               	;
 J-15            	1239.0000   	1.800000    	1               	;
 J-150           	1156.4000   	0.000000    	1               	;
 J-1501          	1004.9000   	0.000000    	1               	;
 J-1502          	1001.3000   	0.000000    	1               	;
 J-1503          	1015.5000   	0.000000    	1               	;
 J-1504          	1043.3000   	0.000000    	1               	;
 J-1505          	1080.4000   	0.000000    	1               	;
 J-1506          	1076.6000   	0.000000    	1               	;
 J-1507          	1078.1000   	0.000000    	1               	;
 J-1508          	1114.7000   	0.000000    	1               	;
 J-1509          	1108.4000   	0.000000    	1               	;
 J-151           	1251.3000   	0.400000    	1               	;
 J-1510          	1166.4000   	0.200000    	1               	;
 J-1511          	1163.9000   	0.200000    	1               	;
 J-1512          	1169.6000   	0.000000    	1               	;
 J-1513          	1164.4000   	0.000000    	1               	;
 J-1515          	1159.8000   	0.000000    	1               	;
 J-1516          	1196.4000   	0.000000    	1               	;
 J-1517          	1171.5000   	0.000000    	1               	;
 J-1518          	1219.9000   	1.300000    	1               	;
 J-1519          	1213.1000   	0.000000    	1               	;
 J-152           	920.2000    	0.100000    	1               	;
 J-1520          	1212.6000   	0.100000    	1               	;
 J-1521          	1051.6000   	0.000000    	1               	;
 J-1522          	929.7000    	0.000000    	1               	;
 J-1523          	1279.7000   	0.000000    	1               	;
 J-1524          	1211.0000   	0.000000    	1               	;
 J-1525          	1147.9000   	0.000000    	1               	;
 J-1526          	1127.6000   	0.000000    	1               	;
 J-1527          	1224.8000   	0.100000    	1               	;
 J-1528          	1226.7000   	0.000000    	1               	;
 J-1529          	1096.5000   	0.000000    	1               	;
 J-153           	929.7000    	0.100000    	1               	;
 J-1530          	1218.5000   	0.000000    	1               	;
 J-1531          	1024.0000   	0.000000    	1               	;
 J-1532          	1048.3000   	0.000000    	1               	;
 J-1533          	1218.0000   	0.400000    	1               	;
 J-1535          	1218.2000   	0.000000    	1               	;
 J-1536          	1211.2000   	0.000000    	1               	;
 J-1537          	1191.5000   	0.000000    	1               	;
 J-1538          	1241.9000   	0.700000    	1               	;
 J-1539          	1241.9000   	0.000000    	1               	;
 J-154           	1210.1000   	0.000000    	1               	;
 J-1540          	1188.4000   	0.000000    	1               	;
 J-1541          	1176.5000   	0.000000    	1               	;
 J-1542          	1189.5000   	0.200000    	1               	;
 J-1543          	1070.7000   	0.000000    	1               	;
 J-1544          	1416.8000   	0.000000    	1               	;
 J-1545          	1637.0000   	0.000000    	1               	;
 J-1546          	1404.4000   	0.000000    	1               	;
 J-1547          	1282.9000   	0.000000    	1               	;
 J-1548          	917.3000    	1.800000    	1               	;
 J-1549          	882.8000    	0.000000    	1               	;
 J-155           	1015.3000   	0.500000    	1               	;
 J-1550          	959.1000    	0.100000    	1               	;
 J-1551          	945.2000    	0.000000    	1               	;
 J-1552          	945.6000    	0.000000    	1               	;
 J-1553          	1222.4000   	0.000000    	1               	;
 J-1554          	1188.5000   	0.000000    	1               	;
 J-1555          	1216.4000   	0.000000    	1               	;
 J-1556          	1168.4000   	0.000000    	1               	;
 J-1557          	1193.7000   	0.000000    	1               	;
 J-1559          	972.0000    	0.000000    	1               	;
 J-156           	1105.8000   	2.400000    	1               	;
 J-1560          	966.4000    	0.000000    	1               	;
 J-1561          	1264.0000   	0.000000    	1               	;
 J-1562          	1192.8000   	0.000000    	1               	;
 J-1563          	1261.7000   	0.000000    	1               	;
 J-1564          	1339.5000   	0.000000    	1               	;
 J-1565          	1109.3000   	0.000000    	1               	;
 J-1566          	1132.9000   	0.000000    	1               	;
 J-1567          	1366.2000   	2.300000    	1               	;
 J-1568          	1366.6000   	0.000000    	1               	;
 J-1569          	1171.0000   	0.000000    	1               	;
 J-157           	1142.3000   	0.000000    	1               	;
 J-1570          	1096.8000   	0.000000    	1               	;
 J-1571          	1144.2000   	0.000000    	1               	;
 J-1572          	1092.7000   	0.000000    	1               	;
 J-1573          	1107.4000   	0.000000    	1               	;
 J-1574          	1355.4000   	0.600000    	1               	;
 J-1575          	1356.9000   	0.000000    	1               	;
 J-1576          	1067.4000   	0.000000    	1               	;
 J-1577          	1065.7000   	0.000000    	1               	;
 J-1578          	1105.5000   	0.000000    	1               	;
 J-1579          	1071.1000   	0.000000    	1               	;
 J-158           	1024.0000   	0.000000    	1               	;
 J-1580          	842.3000    	0.000000    	1               	;
 J-1581          	835.2000    	0.000000    	1               	;
 J-1582          	1076.0000   	0.000000    	1               	;
 J-1584          	786.5000    	0.200000    	1               	;
 J-1586          	802.1000    	0.100000    	1               	;
 J-1587          	788.1000    	0.200000    	1               	;
 J-1588          	787.9000    	0.200000    	1               	;
 J-159           	1119.9000   	0.200000    	1               	;
 J-1590          	862.8000    	0.000000    	1               	;
 J-1591          	802.0000    	0.000000    	1               	;
 J-1592          	1432.3000   	0.000000    	1               	;
 J-1593          	1197.7000   	0.000000    	1               	;
 J-1594          	1191.9000   	0.000000    	1               	;
 J-1595          	1194.3000   	0.000000    	1               	;
 J-1597          	1196.2000   	0.000000    	1               	;
 J-1598          	1165.5000   	0.000000    	1               	;
 J-1599          	1095.5000   	0.000000    	1               	;
 J-16            	1128.2000   	0.300000    	1               	;
 J-160           	990.8000    	0.000000    	1               	;
 J-1600          	1060.4000   	0.000000    	1               	;
 J-1601          	1169.8000   	0.000000    	1               	;
 J-1602          	1151.2000   	0.000000    	1               	;
 J-1604          	1159.3000   	0.000000    	1               	;
 J-1605          	1249.8000   	0.000000    	1               	;
 J-1606          	1159.5000   	0.400000    	1               	;
 J-1607          	1211.1000   	0.300000    	1               	;
 J-1608          	1211.6000   	0.000000    	1               	;
 J-1609          	1260.9000   	0.000000    	1               	;
 J-161           	954.2000    	0.000000    	1               	;
 J-1610          	1233.8000   	0.000000    	1               	;
 J-1611          	1084.4000   	0.000000    	1               	;
 J-1612          	1053.3000   	0.000000    	1               	;
 J-1613          	1082.5000   	0.000000    	1               	;
 J-1614          	1136.1000   	0.000000    	1               	;
 J-1615          	993.4000    	0.000000    	1               	;
 J-1616          	1030.2000   	0.000000    	1               	;
 J-1617          	1023.1000   	0.000000    	1               	;
 J-1618          	1008.2000   	0.000000    	1               	;
 J-1619          	1042.8000   	0.000000    	1               	;
 J-162           	956.4000    	0.000000    	1               	;
 J-1620          	1160.0000   	0.000000    	1               	;
 J-1621          	1158.7000   	0.000000    	1               	;
 J-1622          	942.0000    	0.000000    	1               	;
 J-1623          	942.4000    	0.000000    	1               	;
 J-1624          	1235.5000   	0.000000    	1               	;
 J-1625          	1245.1000   	0.200000    	1               	;
 J-1626          	1245.6000   	0.000000    	1               	;
 J-1627          	1232.2000   	0.000000    	1               	;
 J-1628          	1201.4000   	0.000000    	1               	;
 J-1629          	1123.2000   	0.000000    	1               	;
 J-163           	1336.1000   	0.200000    	1               	;
 J-1630          	1133.5000   	0.000000    	1               	;
 J-1631          	1144.1000   	0.000000    	1               	;
 J-1632          	1144.1000   	0.000000    	1               	;
 J-1633          	1270.5000   	0.000000    	1               	;
 J-1634          	1052.6000   	0.000000    	1               	;
 J-1635          	1130.6000   	0.000000    	1               	;
 J-1636          	1194.6000   	0.000000    	1               	;
 J-1637          	1162.8000   	0.000000    	1               	;
 J-1638          	1144.4000   	3.200000    	1               	;
 J-164           	1113.3000   	0.200000    	1               	;
 J-1640          	1115.7000   	0.000000    	1               	;
 J-1641          	1139.7000   	0.000000    	1               	;
 J-1642          	1141.7000   	0.200000    	1               	;
 J-1643          	1141.7000   	0.000000    	1               	;
 J-1644          	920.4000    	0.000000    	1               	;
 J-1645          	1117.2000   	0.000000    	1               	;
 J-1646          	940.9000    	0.000000    	1               	;
 J-1647          	958.2000    	0.000000    	1               	;
 J-1648          	1172.5000   	0.000000    	1               	;
 J-1649          	1160.4000   	0.000000    	1               	;
 J-165           	967.5000    	0.000000    	1               	;
 J-1650          	1136.8000   	0.000000    	1               	;
 J-1652          	1203.2000   	0.000000    	1               	;
 J-1653          	1148.9000   	0.000000    	1               	;
 J-1654          	1018.2000   	0.000000    	1               	;
 J-1655          	996.6000    	0.000000    	1               	;
 J-1656          	972.5000    	0.000000    	1               	;
 J-1657          	981.9000    	0.000000    	1               	;
 J-1658          	1625.1000   	0.000000    	1               	;
 J-166           	1072.3000   	1.000000    	1               	;
 J-1661          	1269.2000   	0.000000    	1               	;
 J-1662          	1178.9000   	0.000000    	1               	;
 J-1663          	1134.8000   	0.000000    	1               	;
 J-1664          	1118.0000   	0.000000    	1               	;
 J-1665          	1078.1000   	0.200000    	1               	;
 J-1667          	1078.4000   	0.000000    	1               	;
 J-1668          	1138.6000   	0.000000    	1               	;
 J-1669          	1154.8000   	0.000000    	1               	;
 J-167           	1109.3000   	0.800000    	1               	;
 J-1671          	1077.8000   	0.000000    	1               	;
 J-1672          	1242.1000   	2.400000    	1               	;
 J-1673          	1187.7000   	0.000000    	1               	;
 J-1674          	1242.8000   	0.000000    	1               	;
 J-1675          	1219.0000   	0.300000    	1               	;
 J-1676          	1219.7000   	0.000000    	1               	;
 J-1677          	1100.1000   	0.000000    	1               	;
 J-1678          	1144.5000   	0.000000    	1               	;
 J-168           	1105.2000   	0.200000    	1               	;
 J-1680          	1220.9000   	0.000000    	1               	;
 J-1681          	1128.3000   	0.000000    	1               	;
 J-1683          	1126.1000   	0.000000    	1               	;
 J-1684          	1133.5000   	0.000000    	1               	;
 J-1685          	1140.8000   	0.000000    	1               	;
 J-1686          	1238.2000   	0.000000    	1               	;
 J-1687          	1134.6000   	0.000000    	1               	;
 J-1689          	1192.8000   	0.500000    	1               	;
 J-169           	1097.5000   	0.100000    	1               	;
 J-1690          	1164.4000   	0.000000    	1               	;
 J-1692          	1243.7000   	0.100000    	1               	;
 J-1693          	1242.2000   	0.000000    	1               	;
 J-1694          	1246.6000   	0.000000    	1               	;
 J-1695          	1143.2000   	0.000000    	1               	;
 J-1696          	1202.1000   	0.000000    	1               	;
 J-1698          	1205.4000   	0.000000    	1               	;
 J-1699          	1195.6000   	0.000000    	1               	;
 J-17            	1127.0000   	1.000000    	1               	;
 J-170           	1120.0000   	0.000000    	1               	;
 J-1700          	1247.8000   	0.000000    	1               	;
 J-1701          	1263.2000   	0.000000    	1               	;
 J-1702          	1255.3000   	0.000000    	1               	;
 J-1703          	1244.8000   	0.000000    	1               	;
 J-1704          	1218.8000   	0.000000    	1               	;
 J-1705          	1258.3000   	0.000000    	1               	;
 J-1706          	1375.3000   	0.000000    	1               	;
 J-1707          	1249.6000   	0.000000    	1               	;
 J-1708          	993.6000    	0.000000    	1               	;
 J-1709          	967.8000    	0.000000    	1               	;
 J-171           	1107.9000   	1.000000    	1               	;
 J-1710          	945.5000    	0.000000    	1               	;
 J-1711          	970.5000    	0.000000    	1               	;
 J-1712          	984.5000    	0.000000    	1               	;
 J-1713          	1248.4000   	0.000000    	1               	;
 J-1714          	1131.3000   	0.000000    	1               	;
 J-1715          	1101.5000   	0.000000    	1               	;
 J-1716          	990.6000    	0.000000    	1               	;
 J-1717          	985.0000    	0.000000    	1               	;
 J-1718          	997.6000    	0.000000    	1               	;
 J-1719          	1013.3000   	0.000000    	1               	;
 J-172           	1290.6000   	0.000000    	1               	;
 J-1720          	1014.5000   	0.000000    	1               	;
 J-1721          	1039.2000   	0.000000    	1               	;
 J-1722          	1058.6000   	2.800000    	1               	;
 J-1723          	1096.2000   	0.500000    	1               	;
 J-1724          	1095.1000   	0.000000    	1               	;
 J-1725          	1047.6000   	0.000000    	1               	;
 J-1726          	1099.1000   	0.000000    	1               	;
 J-1727          	1071.8000   	0.000000    	1               	;
 J-1728          	1131.0000   	0.000000    	1               	;
 J-1729          	1130.8000   	0.400000    	1               	;
 J-173           	1220.7000   	3.000000    	1               	;
 J-1730          	1154.5000   	0.000000    	1               	;
 J-1731          	1154.8000   	0.000000    	1               	;
 J-1732          	1067.2000   	0.000000    	1               	;
 J-1733          	1179.6000   	0.000000    	1               	;
 J-1734          	1098.2000   	1.900000    	1               	;
 J-1735          	1095.8000   	0.900000    	1               	;
 J-1736          	1095.6000   	0.000000    	1               	;
 J-1737          	1169.0000   	0.700000    	1               	;
 J-1738          	1169.1000   	0.000000    	1               	;
 J-174           	1143.1000   	1.000000    	1               	;
 J-175           	832.3000    	1.000000    	1               	;
 J-176           	842.6000    	1.100000    	1               	;
 J-177           	787.0000    	0.700000    	1               	;
 J-178           	773.5000    	1.500000    	1               	;
 J-179           	743.8000    	1.700000    	1               	;
 J-18            	751.8000    	2.000000    	1               	;
 J-180           	1302.6000   	0.000000    	1               	;
 J-181           	1010.6000   	0.700000    	1               	;
 J-182           	1076.9000   	2.600000    	1               	;
 J-183           	1108.2000   	1.100000    	1               	;
 J-184           	1332.0000   	0.000000    	1               	;
 J-185           	1036.8000   	0.000000    	1               	;
 J-186           	1122.6000   	0.000000    	1               	;
 J-187           	1269.2000   	0.200000    	1               	;
 J-188           	1207.7000   	1.400000    	1               	;
 J-189           	1625.0000   	0.000000    	1               	;
 J-19            	729.6000    	1.100000    	1               	;
 J-190           	1114.3000   	0.000000    	1               	;
 J-191           	731.9000    	0.000000    	1               	;
 J-192           	1097.4000   	0.000000    	1               	;
 J-193           	1097.7000   	0.000000    	1               	;
 J-194           	888.5000    	0.100000    	1               	;
 J-195           	945.7000    	1.600000    	1               	;
 J-196           	1014.4000   	2.300000    	1               	;
 J-197           	1160.9000   	3.300000    	1               	;
 J-198           	1130.8000   	0.600000    	1               	;
 J-199           	981.9000    	1.800000    	1               	;
 J-2             	1625.0000   	0.000000    	1               	;
 J-20            	1319.2000   	1.500000    	1               	;
 J-200           	965.6000    	1.300000    	1               	;
 J-201           	1056.7000   	0.900000    	1               	;
 J-202           	1100.1000   	0.000000    	1               	;
 J-203           	878.1000    	1.500000    	1               	;
 J-204           	1053.6000   	1.600000    	1               	;
 J-205           	1124.8000   	0.600000    	1               	;
 J-206           	1120.5000   	0.500000    	1               	;
 J-207           	1159.3000   	0.000000    	1               	;
 J-208           	1059.1000   	0.600000    	1               	;
 J-209           	1071.2000   	0.800000    	1               	;
 J-21            	1197.2000   	1.000000    	1               	;
 J-210           	1063.9000   	0.600000    	1               	;
 J-211           	1123.3000   	0.800000    	1               	;
 J-212           	1106.5000   	0.300000    	1               	;
 J-213           	999.9000    	0.700000    	1               	;
 J-214           	1063.9000   	1.500000    	1               	;
 J-215           	1115.3000   	0.000000    	1               	;
 J-216           	855.4000    	2.100000    	1               	;
 J-217           	991.2000    	1.300000    	1               	;
 J-218           	1016.9000   	0.700000    	1               	;
 J-219           	1069.7000   	0.300000    	1               	;
 J-22            	963.9000    	3.000000    	1               	;
 J-220           	1075.3000   	0.400000    	1               	;
 J-221           	1061.3000   	1.000000    	1               	;
 J-222           	1042.5000   	1.300000    	1               	;
 J-223           	1104.6000   	0.700000    	1               	;
 J-224           	1125.3000   	0.000000    	1               	;
 J-225           	795.8000    	6.000000    	1               	;
 J-226           	1175.7000   	0.200000    	1               	;
 J-227           	1092.3000   	1.800000    	1               	;
 J-228           	1013.0000   	0.300000    	1               	;
 J-229           	1007.4000   	0.300000    	1               	;
 J-23            	979.4000    	1.200000    	1               	;
 J-230           	1278.9000   	1.900000    	1               	;
 J-231           	1170.2000   	0.000000    	1               	;
 J-232           	1060.6000   	0.400000    	1               	;
 J-233           	1101.6000   	0.500000    	1               	;
 J-234           	1017.0000   	0.300000    	1               	;
 J-235           	1000.4000   	0.700000    	1               	;
 J-236           	1145.0000   	0.800000    	1               	;
 J-237           	1162.0000   	1.500000    	1               	;
 J-238           	1134.5000   	0.000000    	1               	;
 J-239           	1085.3000   	3.200000    	1               	;
 J-24            	1273.6000   	3.000000    	1               	;
 J-240           	780.4000    	2.600000    	1               	;
 J-241           	862.0000    	0.800000    	1               	;
 J-242           	1134.9000   	0.100000    	1               	;
 J-243           	1108.1000   	0.500000    	1               	;
 J-244           	1012.5000   	1.300000    	1               	;
 J-245           	1111.6000   	0.000000    	1               	;
 J-246           	1165.1000   	4.500000    	1               	;
 J-247           	1104.8000   	2.300000    	1               	;
 J-248           	1026.9000   	0.800000    	1               	;
 J-249           	1175.9000   	0.000000    	1               	;
 J-25            	1032.5000   	0.000000    	1               	;
 J-250           	1217.7000   	0.000000    	1               	;
 J-251           	786.5000    	2.300000    	1               	;
 J-252           	988.2000    	1.800000    	1               	;
 J-253           	1257.1000   	0.500000    	1               	;
 J-254           	1121.4000   	1.100000    	1               	;
 J-255           	1134.5000   	0.800000    	1               	;
 J-256           	977.9000    	1.100000    	1               	;
 J-257           	971.0000    	0.500000    	1               	;
 J-258           	980.6000    	0.500000    	1               	;
 J-259           	1118.6000   	0.000000    	1               	;
 J-26            	1023.5000   	0.000000    	1               	;
 J-260           	1192.1000   	0.700000    	1               	;
 J-261           	1492.6000   	0.100000    	1               	;
 J-262           	1555.7000   	0.100000    	1               	;
 J-263           	1040.7000   	0.700000    	1               	;
 J-264           	734.7000    	2.800000    	1               	;
 J-265           	966.6000    	0.900000    	1               	;
 J-266           	782.6000    	1.600000    	1               	;
 J-267           	898.7000    	1.400000    	1               	;
 J-268           	1132.2000   	0.000000    	1               	;
 J-269           	970.7000    	0.700000    	1               	;
 J-27            	1004.7000   	0.900000    	1               	;
 J-270           	738.5000    	1.800000    	1               	;
 J-272           	882.5000    	3.000000    	1               	;
 J-273           	1150.9000   	4.400000    	1               	;
 J-275           	1130.6000   	0.800000    	1               	;
 J-276           	1078.9000   	0.700000    	1               	;
 J-277           	1087.7000   	1.200000    	1               	;
 J-278           	902.3000    	2.200000    	1               	;
 J-279           	944.3000    	7.700000    	1               	;
 J-28            	1100.0000   	0.000000    	1               	;
 J-280           	1045.0000   	1.400000    	1               	;
 J-281           	1108.1000   	0.600000    	1               	;
 J-282           	1099.2000   	1.600000    	1               	;
 J-283           	1159.1000   	1.700000    	1               	;
 J-284           	1053.4000   	4.500000    	1               	;
 J-285           	1049.0000   	3.400000    	1               	;
 J-286           	1431.8000   	3.400000    	1               	;
 J-288           	1037.3000   	1.000000    	1               	;
 J-289           	1082.5000   	0.700000    	1               	;
 J-29            	1582.6000   	0.000000    	1               	;
 J-290           	1088.3000   	1.100000    	1               	;
 J-291           	1414.6000   	1.900000    	1               	;
 J-293           	945.2000    	1.500000    	1               	;
 J-294           	1298.6000   	1.900000    	1               	;
 J-297           	1425.5000   	16.000000   	1               	;
 J-299           	1374.6000   	0.200000    	1               	;
 J-3             	1095.0000   	0.300000    	1               	;
 J-30            	1051.2000   	0.500000    	1               	;
 J-300           	1106.5000   	1.700000    	1               	;
 J-301           	1239.8000   	0.900000    	1               	;
 J-302           	1063.7000   	0.800000    	1               	;
 J-303           	1073.8000   	1.600000    	1               	;
 J-304           	1154.1000   	0.200000    	1               	;
 J-305           	1272.3000   	1.700000    	1               	;
 J-306           	1226.4000   	2.900000    	1               	;
 J-307           	1117.0000   	0.500000    	1               	;
 J-309           	1156.5000   	1.100000    	1               	;
 J-31            	1055.3000   	0.300000    	1               	;
 J-310           	1158.7000   	0.200000    	1               	;
 J-311           	1148.0000   	5.700000    	1               	;
 J-312           	1245.2000   	1.700000    	1               	;
 J-313           	1084.8000   	1.000000    	1               	;
 J-314           	1061.7000   	0.200000    	1               	;
 J-315           	1119.9000   	1.700000    	1               	;
 J-316           	1138.6000   	0.800000    	1               	;
 J-317           	1109.8000   	0.900000    	1               	;
 J-318           	1103.7000   	3.700000    	1               	;
 J-319           	1293.6000   	0.200000    	1               	;
 J-32            	1275.2000   	0.900000    	1               	;
 J-320           	1061.2000   	1.400000    	1               	;
 J-321           	1108.1000   	0.700000    	1               	;
 J-322           	1095.7000   	2.600000    	1               	;
 J-323           	1006.0000   	0.000000    	1               	;
 J-324           	947.0000    	3.500000    	1               	;
 J-325           	1068.4000   	1.100000    	1               	;
 J-326           	979.4000    	0.400000    	1               	;
 J-327           	1058.0000   	0.400000    	1               	;
 J-328           	1401.9000   	1.600000    	1               	;
 J-329           	1097.7000   	1.100000    	1               	;
 J-33            	1046.6000   	0.000000    	1               	;
 J-330           	1118.4000   	0.800000    	1               	;
 J-332           	1221.0000   	1.800000    	1               	;
 J-333           	1266.1000   	1.100000    	1               	;
 J-334           	1369.3000   	1.100000    	1               	;
 J-335           	1052.6000   	6.000000    	1               	;
 J-336           	1303.9000   	0.100000    	1               	;
 J-337           	1232.4000   	1.500000    	1               	;
 J-338           	1325.3000   	5.600000    	1               	;
 J-339           	870.8000    	4.000000    	1               	;
 J-34            	1276.9000   	1.100000    	1               	;
 J-340           	1002.2000   	2.400000    	1               	;
 J-345           	1249.8000   	1.900000    	1               	;
 J-346           	1525.8000   	1.800000    	1               	;
 J-347           	1090.0000   	3.900000    	1               	;
 J-348           	1211.7000   	4.200000    	1               	;
 J-349           	1623.8000   	0.000000    	1               	;
 J-35            	1274.0000   	1.300000    	1               	;
 J-350           	1319.5000   	3.400000    	1               	;
 J-351           	1187.0000   	6.700000    	1               	;
 J-352           	1138.3000   	1.600000    	1               	;
 J-353           	1252.2000   	1.700000    	1               	;
 J-354           	1117.3000   	1.700000    	1               	;
 J-355           	1095.0000   	0.600000    	1               	;
 J-356           	1300.5000   	0.300000    	1               	;
 J-357           	1114.6000   	2.000000    	1               	;
 J-358           	1442.6000   	2.400000    	1               	;
 J-36            	1271.8000   	4.100000    	1               	;
 J-360           	1533.2000   	2.400000    	1               	;
 J-361           	1230.8000   	0.300000    	1               	;
 J-362           	1069.1000   	4.900000    	1               	;
 J-363           	1111.7000   	3.700000    	1               	;
 J-364           	1041.5000   	3.000000    	1               	;
 J-365           	1100.5000   	2.400000    	1               	;
 J-366           	1057.8000   	2.100000    	1               	;
 J-367           	1120.8000   	1.600000    	1               	;
 J-368           	1386.0000   	0.200000    	1               	;
 J-369           	1122.5000   	2.200000    	1               	;
 J-37            	1621.4000   	3.200000    	1               	;
 J-370           	1107.9000   	3.000000    	1               	;
 J-371           	1050.5000   	2.400000    	1               	;
 J-372           	1095.1000   	0.200000    	1               	;
 J-373           	1211.6000   	1.700000    	1               	;
 J-374           	929.1000    	5.900000    	1               	;
 J-375           	1074.3000   	5.400000    	1               	;
 J-376           	1268.7000   	1.000000    	1               	;
 J-377           	1134.7000   	0.900000    	1               	;
 J-378           	1094.1000   	0.800000    	1               	;
 J-379           	942.5000    	1.300000    	1               	;
 J-38            	1549.3000   	1.400000    	1               	;
 J-380           	1067.0000   	0.900000    	1               	;
 J-381           	1061.8000   	0.800000    	1               	;
 J-382           	1128.2000   	1.500000    	1               	;
 J-383           	1167.6000   	1.000000    	1               	;
 J-384           	1122.1000   	1.100000    	1               	;
 J-385           	1131.7000   	0.400000    	1               	;
 J-386           	1162.7000   	0.800000    	1               	;
 J-387           	1166.4000   	1.900000    	1               	;
 J-388           	1260.9000   	1.000000    	1               	;
 J-389           	1227.5000   	2.500000    	1               	;
 J-39            	1193.0000   	1.800000    	1               	;
 J-390           	1187.7000   	2.000000    	1               	;
 J-391           	768.4000    	6.200000    	1               	;
 J-392           	904.8000    	5.200000    	1               	;
 J-393           	846.7000    	2.300000    	1               	;
 J-394           	1257.9000   	3.500000    	1               	;
 J-395           	938.9000    	0.700000    	1               	;
 J-396           	1085.3000   	0.500000    	1               	;
 J-397           	1105.3000   	1.400000    	1               	;
 J-398           	1065.5000   	1.200000    	1               	;
 J-4             	1120.8000   	0.400000    	1               	;
 J-40            	1232.3000   	0.500000    	1               	;
 J-400           	1114.0000   	1.300000    	1               	;
 J-401           	1078.0000   	1.000000    	1               	;
 J-402           	1145.9000   	3.000000    	1               	;
 J-403           	1085.6000   	1.100000    	1               	;
 J-404           	1257.4000   	0.700000    	1               	;
 J-405           	1261.9000   	0.100000    	1               	;
 J-406           	922.4000    	1.200000    	1               	;
 J-407           	967.0000    	0.700000    	1               	;
 J-409           	950.1000    	2.000000    	1               	;
 J-41            	1116.8000   	1.800000    	1               	;
 J-410           	1062.7000   	1.300000    	1               	;
 J-411           	1044.1000   	0.200000    	1               	;
 J-412           	943.8000    	2.100000    	1               	;
 J-413           	1058.4000   	0.700000    	1               	;
 J-414           	1030.9000   	1.600000    	1               	;
 J-415           	925.2000    	1.700000    	1               	;
 J-416           	953.0000    	0.700000    	1               	;
 J-417           	977.8000    	0.700000    	1               	;
 J-418           	911.4000    	0.700000    	1               	;
 J-419           	976.6000    	0.400000    	1               	;
 J-42            	1151.9000   	0.700000    	1               	;
 J-420           	1067.7000   	2.800000    	1               	;
 J-422           	1172.5000   	1.100000    	1               	;
 J-423           	1218.8000   	1.700000    	1               	;
 J-424           	1099.8000   	0.900000    	1               	;
 J-425           	1059.9000   	1.400000    	1               	;
 J-426           	1166.2000   	0.400000    	1               	;
 J-428           	1131.0000   	1.200000    	1               	;
 J-429           	1248.2000   	1.700000    	1               	;
 J-43            	1089.1000   	1.000000    	1               	;
 J-430           	955.5000    	1.200000    	1               	;
 J-431           	1106.6000   	0.600000    	1               	;
 J-432           	946.5000    	2.500000    	1               	;
 J-433           	1079.6000   	1.700000    	1               	;
 J-434           	1042.0000   	0.500000    	1               	;
 J-435           	1025.5000   	0.700000    	1               	;
 J-436           	1048.4000   	1.200000    	1               	;
 J-437           	1053.6000   	0.700000    	1               	;
 J-438           	1035.8000   	1.000000    	1               	;
 J-439           	1089.9000   	0.300000    	1               	;
 J-44            	1070.5000   	0.600000    	1               	;
 J-442           	1193.3000   	1.100000    	1               	;
 J-443           	1179.2000   	0.500000    	1               	;
 J-444           	875.1000    	1.900000    	1               	;
 J-445           	941.9000    	1.400000    	1               	;
 J-446           	1201.8000   	0.100000    	1               	;
 J-447           	1186.5000   	0.500000    	1               	;
 J-448           	937.5000    	0.700000    	1               	;
 J-449           	1022.5000   	0.700000    	1               	;
 J-45            	1087.1000   	1.000000    	1               	;
 J-450           	1037.3000   	1.600000    	1               	;
 J-451           	1164.9000   	0.500000    	1               	;
 J-452           	1123.8000   	0.300000    	1               	;
 J-453           	1140.5000   	0.300000    	1               	;
 J-454           	1007.1000   	2.200000    	1               	;
 J-456           	1241.9000   	0.600000    	1               	;
 J-457           	1160.6000   	1.100000    	1               	;
 J-458           	1178.4000   	2.200000    	1               	;
 J-459           	1195.0000   	1.000000    	1               	;
 J-46            	1124.7000   	0.500000    	1               	;
 J-461           	1414.0000   	0.600000    	1               	;
 J-462           	1108.6000   	0.300000    	1               	;
 J-463           	1122.1000   	1.200000    	1               	;
 J-464           	1099.1000   	1.000000    	1               	;
 J-465           	1033.5000   	0.000000    	1               	;
 J-466           	1020.3000   	0.000000    	1               	;
 J-469           	1238.6000   	0.300000    	1               	;
 J-47            	987.5000    	0.000000    	1               	;
 J-470           	1353.4000   	0.000000    	1               	;
 J-472           	1017.1000   	1.200000    	1               	;
 J-473           	1056.4000   	1.500000    	1               	;
 J-474           	1079.4000   	0.900000    	1               	;
 J-476           	862.9000    	0.700000    	1               	;
 J-478           	866.1000    	2.500000    	1               	;
 J-479           	990.8000    	2.000000    	1               	;
 J-48            	1299.2000   	1.400000    	1               	;
 J-480           	990.8000    	0.000000    	1               	;
 J-481           	928.5000    	0.000000    	1               	;
 J-483           	1286.1000   	0.000000    	1               	;
 J-486           	1000.7000   	0.500000    	1               	;
 J-487           	1125.3000   	0.700000    	1               	;
 J-488           	1102.4000   	0.400000    	1               	;
 J-489           	1125.3000   	0.000000    	1               	;
 J-49            	1223.8000   	1.600000    	1               	;
 J-490           	1102.4000   	0.000000    	1               	;
 J-491           	1023.6000   	0.200000    	1               	;
 J-492           	1023.6000   	0.000000    	1               	;
 J-493           	1147.0000   	2.500000    	1               	;
 J-494           	1143.0000   	0.400000    	1               	;
 J-496           	1120.0000   	2.800000    	1               	;
 J-497           	1069.6000   	0.000000    	1               	;
 J-498           	967.9000    	0.400000    	1               	;
 J-5             	1404.2000   	3.600000    	1               	;
 J-50            	1069.6000   	0.400000    	1               	;
 J-508           	1020.3000   	0.300000    	1               	;
 J-509           	1059.7000   	0.000000    	1               	;
 J-51            	1161.4000   	0.000000    	1               	;
 J-510           	1102.4000   	1.200000    	1               	;
 J-512           	1059.7000   	0.400000    	1               	;
 J-513           	1056.4000   	4.800000    	1               	;
 J-514           	1148.3000   	3.700000    	1               	;
 J-515           	1276.2000   	0.900000    	1               	;
 J-516           	1346.4000   	0.900000    	1               	;
 J-517           	1352.9000   	1.100000    	1               	;
 J-518           	1108.9000   	0.200000    	1               	;
 J-519           	1049.9000   	0.600000    	1               	;
 J-52            	1108.9000   	0.000000    	1               	;
 J-520           	964.6000    	0.900000    	1               	;
 J-521           	1105.6000   	0.500000    	1               	;
 J-522           	944.9000    	2.200000    	1               	;
 J-524           	967.9000    	1.000000    	1               	;
 J-525           	990.8000    	1.100000    	1               	;
 J-526           	1017.1000   	0.500000    	1               	;
 J-527           	1023.6000   	0.600000    	1               	;
 J-528           	1213.9000   	0.500000    	1               	;
 J-529           	1099.1000   	6.100000    	1               	;
 J-53            	862.9000    	7.600000    	1               	;
 J-530           	889.1000    	0.800000    	1               	;
 J-531           	902.2000    	0.500000    	1               	;
 J-532           	925.2000    	0.100000    	1               	;
 J-534           	902.2000    	0.000000    	1               	;
 J-535           	908.8000    	0.700000    	1               	;
 J-536           	908.8000    	0.100000    	1               	;
 J-54            	992.4000    	0.000000    	1               	;
 J-540           	1246.7000   	0.700000    	1               	;
 J-541           	908.8000    	0.500000    	1               	;
 J-545           	1102.4000   	0.000000    	1               	;
 J-546           	1102.4000   	0.400000    	1               	;
 J-547           	1023.6000   	0.500000    	1               	;
 J-549           	1036.8000   	0.800000    	1               	;
 J-55            	969.5000    	0.000000    	1               	;
 J-550           	1030.2000   	1.100000    	1               	;
 J-551           	1026.9000   	0.100000    	1               	;
 J-553           	1023.6000   	0.700000    	1               	;
 J-554           	1028.0000   	0.200000    	1               	;
 J-555           	993.4000    	0.800000    	1               	;
 J-556           	1015.2000   	0.300000    	1               	;
 J-557           	1063.8000   	1.400000    	1               	;
 J-559           	1010.1000   	1.500000    	1               	;
 J-56            	957.5000    	0.000000    	1               	;
 J-560           	1038.5000   	0.800000    	1               	;
 J-562           	1498.5000   	2.400000    	1               	;
 J-563           	1514.0000   	0.200000    	1               	;
 J-564           	1512.7000   	0.300000    	1               	;
 J-565           	1492.1000   	0.200000    	1               	;
 J-567           	1128.2000   	0.200000    	1               	;
 J-569           	1133.0000   	0.600000    	1               	;
 J-57            	1134.9000   	5.200000    	1               	;
 J-570           	1115.4000   	0.700000    	1               	;
 J-571           	1115.6000   	1.200000    	1               	;
 J-572           	1141.0000   	0.800000    	1               	;
 J-574           	1126.0000   	0.300000    	1               	;
 J-575           	1131.5000   	0.300000    	1               	;
 J-576           	1130.9000   	0.600000    	1               	;
 J-577           	1134.5000   	0.400000    	1               	;
 J-578           	1237.4000   	0.200000    	1               	;
 J-58            	1206.2000   	0.700000    	1               	;
 J-582           	1244.4000   	0.900000    	1               	;
 J-585           	1192.2000   	2.200000    	1               	;
 J-586           	1202.8000   	1.200000    	1               	;
 J-587           	1250.0000   	0.500000    	1               	;
 J-588           	1170.5000   	0.200000    	1               	;
 J-589           	1184.3000   	2.900000    	1               	;
 J-59            	1008.2000   	0.000000    	1               	;
 J-590           	1170.9000   	0.400000    	1               	;
 J-591           	1208.3000   	0.800000    	1               	;
 J-592           	1213.1000   	0.400000    	1               	;
 J-594           	1222.2000   	1.800000    	1               	;
 J-596           	1179.1000   	0.600000    	1               	;
 J-598           	1164.5000   	1.700000    	1               	;
 J-6             	825.1000    	7.700000    	1               	;
 J-60            	1051.3000   	0.000000    	1               	;
 J-600           	918.2000    	1.700000    	1               	;
 J-601           	1134.9000   	0.400000    	1               	;
 J-602           	1082.7000   	0.400000    	1               	;
 J-603           	1082.1000   	0.500000    	1               	;
 J-606           	984.4000    	0.200000    	1               	;
 J-609           	991.1000    	0.600000    	1               	;
 J-61            	796.9000    	1.100000    	1               	;
 J-610           	966.8000    	0.100000    	1               	;
 J-611           	966.9000    	0.400000    	1               	;
 J-612           	809.3000    	1.000000    	1               	;
 J-613           	805.0000    	1.500000    	1               	;
 J-615           	861.7000    	2.500000    	1               	;
 J-617           	980.2000    	1.100000    	1               	;
 J-618           	1179.6000   	0.600000    	1               	;
 J-619           	1155.5000   	0.100000    	1               	;
 J-62            	786.0000    	1.200000    	1               	;
 J-620           	1147.5000   	1.600000    	1               	;
 J-621           	1211.1000   	0.200000    	1               	;
 J-622           	1243.1000   	0.700000    	1               	;
 J-623           	1193.7000   	0.000000    	1               	;
 J-625           	1200.4000   	0.000000    	1               	;
 J-626           	1200.5000   	0.400000    	1               	;
 J-628           	1198.9000   	1.000000    	1               	;
 J-629           	1203.2000   	1.200000    	1               	;
 J-63            	1057.0000   	1.000000    	1               	;
 J-630           	1196.5000   	0.500000    	1               	;
 J-631           	1191.4000   	0.200000    	1               	;
 J-633           	1195.3000   	0.300000    	1               	;
 J-635           	732.0000    	0.300000    	1               	;
 J-637           	741.2000    	1.000000    	1               	;
 J-638           	776.3000    	0.600000    	1               	;
 J-64            	1102.7000   	0.900000    	1               	;
 J-642           	1098.8000   	0.000000    	1               	;
 J-643           	1101.6000   	0.000000    	1               	;
 J-647           	1279.0000   	0.600000    	1               	;
 J-65            	820.9000    	0.600000    	1               	;
 J-650           	979.3000    	0.500000    	1               	;
 J-651           	1000.2000   	0.800000    	1               	;
 J-653           	1197.4000   	1.900000    	1               	;
 J-655           	1039.2000   	0.700000    	1               	;
 J-656           	1040.7000   	0.500000    	1               	;
 J-657           	1081.0000   	0.300000    	1               	;
 J-658           	1042.6000   	1.600000    	1               	;
 J-659           	1055.1000   	1.000000    	1               	;
 J-66            	850.9000    	0.500000    	1               	;
 J-660           	1086.9000   	2.800000    	1               	;
 J-661           	1202.8000   	1.400000    	1               	;
 J-664           	1130.8000   	0.600000    	1               	;
 J-665           	1173.8000   	0.400000    	1               	;
 J-666           	970.7000    	0.100000    	1               	;
 J-667           	992.9000    	0.400000    	1               	;
 J-669           	964.3000    	1.200000    	1               	;
 J-67            	909.9000    	0.300000    	1               	;
 J-672           	995.8000    	0.200000    	1               	;
 J-673           	995.2000    	1.200000    	1               	;
 J-675           	1069.4000   	0.300000    	1               	;
 J-677           	1096.0000   	0.600000    	1               	;
 J-678           	1086.7000   	0.500000    	1               	;
 J-679           	1139.6000   	0.400000    	1               	;
 J-68            	872.8000    	0.900000    	1               	;
 J-680           	1090.7000   	0.600000    	1               	;
 J-681           	814.0000    	1.300000    	1               	;
 J-682           	900.5000    	0.700000    	1               	;
 J-684           	904.1000    	0.000000    	1               	;
 J-685           	1255.1000   	1.100000    	1               	;
 J-687           	1253.7000   	0.000000    	1               	;
 J-688           	1253.6000   	0.000000    	1               	;
 J-69            	1067.5000   	1.400000    	1               	;
 J-690           	997.2000    	0.600000    	1               	;
 J-691           	997.8000    	0.600000    	1               	;
 J-692           	1025.7000   	0.600000    	1               	;
 J-693           	1025.9000   	0.100000    	1               	;
 J-694           	1006.2000   	0.100000    	1               	;
 J-695           	1007.6000   	1.000000    	1               	;
 J-696           	1044.7000   	1.000000    	1               	;
 J-698           	1035.4000   	0.400000    	1               	;
 J-7             	1071.4000   	0.500000    	1               	;
 J-70            	1054.6000   	0.000000    	1               	;
 J-702           	1202.3000   	1.200000    	1               	;
 J-703           	1160.9000   	0.400000    	1               	;
 J-704           	1151.7000   	0.600000    	1               	;
 J-705           	1139.2000   	0.300000    	1               	;
 J-708           	1122.5000   	0.400000    	1               	;
 J-71            	888.6000    	2.100000    	1               	;
 J-710           	1152.8000   	0.400000    	1               	;
 J-711           	1144.3000   	0.900000    	1               	;
 J-712           	1152.8000   	1.400000    	1               	;
 J-713           	1336.7000   	0.300000    	1               	;
 J-715           	1374.1000   	0.000000    	1               	;
 J-716           	1373.7000   	0.200000    	1               	;
 J-717           	1328.4000   	0.800000    	1               	;
 J-719           	1252.0000   	2.600000    	1               	;
 J-72            	1015.4000   	0.000000    	1               	;
 J-722           	1245.0000   	0.500000    	1               	;
 J-723           	1249.2000   	0.000000    	1               	;
 J-725           	1249.6000   	0.000000    	1               	;
 J-728           	1330.8000   	0.600000    	1               	;
 J-729           	1146.2000   	1.200000    	1               	;
 J-73            	954.7000    	0.000000    	1               	;
 J-730           	1120.0000   	0.900000    	1               	;
 J-732           	1192.8000   	2.400000    	1               	;
 J-733           	1134.2000   	6.500000    	1               	;
 J-734           	1261.5000   	3.200000    	1               	;
 J-735           	1123.4000   	2.200000    	1               	;
 J-737           	1051.4000   	1.100000    	1               	;
 J-74            	840.6000    	1.700000    	1               	;
 J-740           	1051.7000   	3.600000    	1               	;
 J-742           	1052.6000   	3.600000    	1               	;
 J-743           	1052.7000   	0.000000    	1               	;
 J-744           	944.0000    	0.000000    	1               	;
 J-745           	941.7000    	0.100000    	1               	;
 J-746           	1122.7000   	0.500000    	1               	;
 J-747           	1166.3000   	0.500000    	1               	;
 J-749           	1169.0000   	0.900000    	1               	;
 J-75            	1059.7000   	0.000000    	1               	;
 J-751           	967.8000    	1.100000    	1               	;
 J-752           	994.0000    	0.300000    	1               	;
 J-755           	993.0000    	1.200000    	1               	;
 J-756           	1193.2000   	1.500000    	1               	;
 J-757           	1077.1000   	0.300000    	1               	;
 J-758           	1077.2000   	0.400000    	1               	;
 J-759           	1095.0000   	0.700000    	1               	;
 J-76            	1126.9000   	1.200000    	1               	;
 J-760           	1106.7000   	0.800000    	1               	;
 J-761           	1139.1000   	0.600000    	1               	;
 J-763           	1011.1000   	0.100000    	1               	;
 J-765           	1147.3000   	0.400000    	1               	;
 J-766           	1135.2000   	0.100000    	1               	;
 J-77            	902.9000    	0.200000    	1               	;
 J-770           	1133.4000   	1.100000    	1               	;
 J-771           	1133.9000   	0.300000    	1               	;
 J-772           	1147.3000   	0.100000    	1               	;
 J-775           	1162.2000   	3.100000    	1               	;
 J-777           	1226.8000   	0.900000    	1               	;
 J-778           	1251.2000   	0.000000    	1               	;
 J-779           	821.1000    	2.700000    	1               	;
 J-78            	925.5000    	0.700000    	1               	;
 J-781           	985.9000    	0.900000    	1               	;
 J-783           	1300.0000   	0.100000    	1               	;
 J-784           	1301.3000   	0.000000    	1               	;
 J-785           	1302.4000   	0.200000    	1               	;
 J-786           	1236.3000   	1.000000    	1               	;
 J-787           	1270.6000   	0.000000    	1               	;
 J-79            	1000.4000   	0.500000    	1               	;
 J-791           	734.7000    	0.100000    	1               	;
 J-792           	771.9000    	1.300000    	1               	;
 J-796           	792.5000    	4.400000    	1               	;
 J-797           	860.9000    	3.700000    	1               	;
 J-799           	781.3000    	2.000000    	1               	;
 J-8             	1083.4000   	0.500000    	1               	;
 J-80            	1005.1000   	4.900000    	1               	;
 J-801           	781.4000    	1.000000    	1               	;
 J-802           	800.0000    	1.600000    	1               	;
 J-804           	832.1000    	0.200000    	1               	;
 J-805           	803.1000    	0.700000    	1               	;
 J-806           	802.4000    	0.900000    	1               	;
 J-807           	1337.9000   	0.000000    	1               	;
 J-808           	1340.5000   	0.400000    	1               	;
 J-809           	1281.1000   	0.300000    	1               	;
 J-81            	996.6000    	2.400000    	1               	;
 J-810           	1279.6000   	0.300000    	1               	;
 J-811           	1281.6000   	0.000000    	1               	;
 J-812           	1281.8000   	0.000000    	1               	;
 J-813           	1235.5000   	0.400000    	1               	;
 J-815           	1220.0000   	0.300000    	1               	;
 J-816           	1240.7000   	0.300000    	1               	;
 J-817           	1219.2000   	0.300000    	1               	;
 J-818           	1218.4000   	0.000000    	1               	;
 J-819           	1154.3000   	0.500000    	1               	;
 J-82            	1060.1000   	3.300000    	1               	;
 J-820           	1228.3000   	0.500000    	1               	;
 J-821           	1240.7000   	0.300000    	1               	;
 J-822           	1250.6000   	0.400000    	1               	;
 J-823           	1252.3000   	0.400000    	1               	;
 J-824           	1214.9000   	0.400000    	1               	;
 J-825           	1248.3000   	0.400000    	1               	;
 J-826           	1214.9000   	0.600000    	1               	;
 J-827           	1249.2000   	0.000000    	1               	;
 J-828           	1248.8000   	0.000000    	1               	;
 J-83            	1099.6000   	2.000000    	1               	;
 J-830           	1233.9000   	1.300000    	1               	;
 J-833           	945.4000    	1.000000    	1               	;
 J-834           	971.5000    	0.900000    	1               	;
 J-836           	984.7000    	0.600000    	1               	;
 J-837           	985.8000    	7.100000    	1               	;
 J-839           	1206.7000   	4.900000    	1               	;
 J-84            	1172.8000   	2.600000    	1               	;
 J-840           	1131.4000   	1.000000    	1               	;
 J-841           	1066.1000   	3.100000    	1               	;
 J-842           	929.9000    	2.000000    	1               	;
 J-844           	1063.0000   	0.300000    	1               	;
 J-845           	1063.0000   	0.200000    	1               	;
 J-846           	1108.9000   	1.600000    	1               	;
 J-847           	1161.4000   	1.600000    	1               	;
 J-85            	1099.1000   	1.100000    	1               	;
 J-850           	1174.5000   	0.200000    	1               	;
 J-851           	1177.8000   	0.900000    	1               	;
 J-852           	882.6000    	1.300000    	1               	;
 J-855           	1236.2000   	0.500000    	1               	;
 J-857           	1208.9000   	4.800000    	1               	;
 J-858           	1226.4000   	1.500000    	1               	;
 J-859           	1260.0000   	0.500000    	1               	;
 J-86            	1236.1000   	8.900000    	1               	;
 J-861           	1177.8000   	0.000000    	1               	;
 J-862           	1176.3000   	0.000000    	1               	;
 J-863           	813.7000    	0.000000    	1               	;
 J-867           	1666.7000   	0.800000    	1               	;
 J-868           	1282.8000   	1.900000    	1               	;
 J-869           	1263.1000   	2.200000    	1               	;
 J-87            	1226.5000   	3.200000    	1               	;
 J-870           	931.8000    	0.800000    	1               	;
 J-871           	1007.2000   	3.500000    	1               	;
 J-873           	1128.6000   	0.800000    	1               	;
 J-874           	1135.2000   	0.600000    	1               	;
 J-878           	1227.0000   	0.300000    	1               	;
 J-88            	1217.2000   	5.300000    	1               	;
 J-880           	1151.6000   	0.600000    	1               	;
 J-886           	987.5000    	0.600000    	1               	;
 J-889           	990.8000    	0.200000    	1               	;
 J-89            	1133.7000   	0.000000    	1               	;
 J-890           	1000.7000   	0.500000    	1               	;
 J-892           	981.0000    	0.700000    	1               	;
 J-893           	1003.9000   	0.300000    	1               	;
 J-894           	1010.5000   	0.400000    	1               	;
 J-895           	1010.5000   	0.000000    	1               	;
 J-896           	1636.4000   	0.200000    	1               	;
 J-897           	1584.7000   	0.200000    	1               	;
 J-898           	1555.1000   	0.200000    	1               	;
 J-899           	1423.9000   	0.200000    	1               	;
 J-9             	1051.8000   	2.900000    	1               	;
 J-90            	1059.7000   	1.700000    	1               	;
 J-900           	1555.1000   	0.100000    	1               	;
 J-901           	1556.8000   	0.200000    	1               	;
 J-905           	961.3000    	0.000000    	1               	;
 J-906           	941.6000    	0.000000    	1               	;
 J-907           	941.6000    	0.100000    	1               	;
 J-908           	967.9000    	1.300000    	1               	;
 J-909           	971.1000    	0.000000    	1               	;
 J-91            	1161.4000   	2.400000    	1               	;
 J-911           	1053.2000   	0.500000    	1               	;
 J-912           	1053.2000   	0.000000    	1               	;
 J-914           	1111.4000   	0.000000    	1               	;
 J-916           	1313.0000   	0.300000    	1               	;
 J-917           	1332.6000   	1.600000    	1               	;
 J-918           	1335.9000   	0.300000    	1               	;
 J-919           	1313.0000   	0.000000    	1               	;
 J-92            	1381.2000   	1.300000    	1               	;
 J-920           	1332.6000   	0.100000    	1               	;
 J-921           	1335.9000   	0.000000    	1               	;
 J-922           	1335.9000   	0.000000    	1               	;
 J-923           	1148.3000   	0.900000    	1               	;
 J-925           	1177.8000   	0.400000    	1               	;
 J-928           	1218.1000   	1.100000    	1               	;
 J-93            	1394.4000   	0.800000    	1               	;
 J-930           	1141.7000   	0.900000    	1               	;
 J-931           	1053.2000   	0.600000    	1               	;
 J-932           	1092.5000   	0.800000    	1               	;
 J-933           	1171.3000   	0.200000    	1               	;
 J-934           	1209.7000   	0.900000    	1               	;
 J-935           	1099.1000   	1.100000    	1               	;
 J-936           	1086.0000   	0.500000    	1               	;
 J-937           	1079.4000   	0.600000    	1               	;
 J-939           	1102.4000   	0.800000    	1               	;
 J-94            	1473.1000   	0.300000    	1               	;
 J-940           	1069.6000   	1.800000    	1               	;
 J-941           	1107.4000   	0.000000    	1               	;
 J-942           	790.7000    	0.000000    	1               	;
 J-943           	1273.1000   	0.600000    	1               	;
 J-944           	1273.1000   	0.000000    	1               	;
 J-945           	1051.6000   	1.500000    	1               	;
 J-946           	1273.0000   	0.500000    	1               	;
 J-95            	1119.6000   	0.000000    	1               	;
 J-951           	1165.4000   	1.000000    	1               	;
 J-953           	1211.4000   	0.000000    	1               	;
 J-954           	1233.0000   	0.300000    	1               	;
 J-955           	1208.6000   	0.400000    	1               	;
 J-957           	1245.1000   	1.100000    	1               	;
 J-958           	809.0000    	0.100000    	1               	;
 J-959           	813.4000    	0.100000    	1               	;
 J-96            	1110.1000   	2.200000    	1               	;
 J-960           	808.1000    	1.400000    	1               	;
 J-961           	820.3000    	1.200000    	1               	;
 J-962           	838.8000    	0.700000    	1               	;
 J-963           	839.0000    	0.000000    	1               	;
 J-964           	845.0000    	1.000000    	1               	;
 J-965           	1057.4000   	0.000000    	1               	;
 J-967           	1180.9000   	2.800000    	1               	;
 J-97            	1039.1000   	0.100000    	1               	;
 J-970           	1142.3000   	0.500000    	1               	;
 J-971           	1111.6000   	1.200000    	1               	;
 J-974           	1095.9000   	2.500000    	1               	;
 J-977           	1148.9000   	1.900000    	1               	;
 J-978           	1169.4000   	0.300000    	1               	;
 J-979           	1078.5000   	0.000000    	1               	;
 J-98            	1070.8000   	0.100000    	1               	;
 J-980           	1076.6000   	0.000000    	1               	;
 J-981           	1169.1000   	1.000000    	1               	;
 J-983           	1251.7000   	1.300000    	1               	;
 J-984           	1154.0000   	8.400000    	1               	;
 J-985           	1088.0000   	4.900000    	1               	;
 J-986           	1241.9000   	4.600000    	1               	;
 J-987           	1100.1000   	0.700000    	1               	;
 J-989           	1112.7000   	0.400000    	1               	;
 J-99            	1115.2000   	0.000000    	1               	;
 J-991           	1090.2000   	1.000000    	1               	;
 J-993           	1077.1000   	1.400000    	1               	;
 J-994           	1118.5000   	0.900000    	1               	;
 J-995           	1082.7000   	0.900000    	1               	;
 J-996           	1083.2000   	1.500000    	1               	;
 J-997           	1249.8000   	1.500000    	1               	;
 J-998           	1049.2000   	0.400000    	1               	;
 J-999           	1054.1000   	0.500000    	1               	;
 O-Kelly_Fork    	1202.9000   	0.000000    	1               	;
 I-Kelly_Fork_1  	1439.5000   	0.000000    	1               	;
 I-Knob_Botttom  	1229.0000   	0.000000    	1               	;
 O-Ogden_Vest    	1331.9000   	0.000000    	1               	;
 I-Output_Pump   	1021.8000   	0.000000    	1               	;
 O-Perkins_Madden	908.1000    	0.000000    	1               	;
 I-Possum_trot   	1345.3000   	0.000000    	1               	;
 O-Rock_Forka    	731.9000    	0.000000    	1               	;
 I-Short_Fork    	1303.3000   	0.000000    	1               	;
 I-Slone_FK      	1035.4000   	0.000000    	1               	;
 O-Slone_Fork_1  	1632.9000   	0.000000    	1               	;
 I-Trace_Caney   	1286.9000   	0.000000    	1               	;
 I-Wiley_Fork    	1259.6000   	0.000000    	1               	;
 I-Wilson_Branch 	1250.9000   	0.000000    	1               	;
 I-Wolfepen_Creek	1215.0000   	0.000000    	1               	;
 O-Yellow_Creek  	1149.4000   	0.000000    	1               	;
 I-1410_Pump     	1492.5000   	0.000000    	1               	;
 I-AV-1          	1134.3000   	0.000000    	1               	;
 O-AV-10         	1214.2000   	0.000000    	1               	;
 O-AV-100        	1144.2000   	0.000000    	1               	;
 O-AV-102        	1066.1000   	0.000000    	1               	;
 O-AV-103        	1056.4000   	0.000000    	1               	;
 O-AV-104        	1051.2000   	0.000000    	1               	;
 O-AV-105        	1022.1000   	0.000000    	1               	;
 O-AV-106        	1022.7000   	0.000000    	1               	;
 O-AV-107        	1401.1000   	0.000000    	1               	;
 O-AV-108        	1166.7000   	0.000000    	1               	;
 O-AV-109        	1136.2000   	0.000000    	1               	;
 O-AV-11         	1235.8000   	0.000000    	1               	;
 O-AV-110        	1011.6000   	0.000000    	1               	;
 O-AV-111        	991.7000    	0.000000    	1               	;
 O-AV-112        	1036.7000   	0.000000    	1               	;
 O-AV-113        	1168.5000   	0.000000    	1               	;
 O-AV-114        	987.8000    	0.000000    	1               	;
 O-AV-115        	1169.4000   	0.000000    	1               	;
 O-AV-116        	987.8000    	0.000000    	1               	;
 O-AV-117        	987.5000    	0.000000    	1               	;
 O-AV-118        	987.5000    	0.000000    	1               	;
 O-AV-119        	985.1000    	0.000000    	1               	;
 O-AV-12         	1249.3000   	0.000000    	1               	;
 O-AV-120        	980.0000    	0.000000    	1               	;
 O-AV-121        	1221.0000   	0.000000    	1               	;
 O-AV-122        	981.2000    	0.000000    	1               	;
 O-AV-123        	984.5000    	0.000000    	1               	;
 O-AV-124        	1170.8000   	0.000000    	1               	;
 O-AV-125        	985.0000    	0.000000    	1               	;
 O-AV-126        	984.4000    	0.000000    	1               	;
 O-AV-127        	1140.6000   	0.000000    	1               	;
 O-AV-128        	966.8000    	0.000000    	1               	;
 O-AV-129        	966.9000    	0.000000    	1               	;
 O-AV-13         	1205.5000   	0.000000    	1               	;
 O-AV-130        	969.7000    	0.000000    	1               	;
 O-AV-131        	1093.3000   	0.000000    	1               	;
 O-AV-132        	1131.3000   	0.000000    	1               	;
 O-AV-133        	1130.8000   	0.000000    	1               	;
 O-AV-134        	1306.7000   	0.000000    	1               	;
 O-AV-135        	1171.1000   	0.000000    	1               	;
 O-AV-136        	934.8000    	0.000000    	1               	;
 O-AV-137        	961.9000    	0.000000    	1               	;
 O-AV-138        	928.7000    	0.000000    	1               	;
 O-AV-139        	987.9000    	0.000000    	1               	;
 O-AV-14         	1413.6000   	0.000000    	1               	;
 O-AV-140        	1176.2000   	0.000000    	1               	;
 O-AV-141        	920.6000    	0.000000    	1               	;
 O-AV-142        	918.9000    	0.000000    	1               	;
 O-AV-143        	913.5000    	0.000000    	1               	;
 O-AV-144        	914.4000    	0.000000    	1               	;
 O-AV-145        	914.9000    	0.000000    	1               	;
 O-AV-147        	910.9000    	0.000000    	1               	;
 O-AV-148        	915.2000    	0.000000    	1               	;
 O-AV-149        	1192.1000   	0.000000    	1               	;
 O-AV-15         	1436.4000   	0.000000    	1               	;
 O-AV-150        	916.1000    	0.000000    	1               	;
 O-AV-151        	935.9000    	0.000000    	1               	;
 O-AV-152        	1184.0000   	0.000000    	1               	;
 O-AV-153        	1004.8000   	0.000000    	1               	;
 O-AV-154        	880.3000    	0.000000    	1               	;
 O-AV-155        	886.3000    	0.000000    	1               	;
 O-AV-156        	879.6000    	0.000000    	1               	;
 O-AV-157        	1052.6000   	0.000000    	1               	;
 O-AV-158        	912.2000    	0.000000    	1               	;
 O-AV-159        	811.9000    	0.000000    	1               	;
 O-AV-16         	1083.2000   	0.000000    	1               	;
 O-AV-160        	811.0000    	0.000000    	1               	;
 O-AV-161        	768.3000    	0.000000    	1               	;
 O-AV-162        	1492.9000   	0.000000    	1               	;
 O-AV-163        	851.9000    	0.000000    	1               	;
 O-AV-164        	1192.5000   	0.000000    	1               	;
 O-AV-165        	834.8000    	0.000000    	1               	;
 O-AV-166        	780.0000    	0.000000    	1               	;
 O-AV-167        	789.8000    	0.000000    	1               	;
 O-AV-168        	1235.1000   	0.000000    	1               	;
 O-AV-169        	799.4000    	0.000000    	1               	;
 O-AV-17         	1021.3000   	0.000000    	1               	;
 O-AV-170        	806.5000    	0.000000    	1               	;
 O-AV-171        	781.3000    	0.000000    	1               	;
 O-AV-172        	781.4000    	0.000000    	1               	;
 O-AV-173        	781.3000    	0.000000    	1               	;
 O-AV-174        	803.9000    	0.000000    	1               	;
 O-AV-175        	1492.8000   	0.000000    	1               	;
 O-AV-176        	1238.4000   	0.000000    	1               	;
 O-AV-177        	797.1000    	0.000000    	1               	;
 O-AV-178        	803.3000    	0.000000    	1               	;
 O-AV-179        	1177.3000   	0.000000    	1               	;
 O-AV-18         	1605.5000   	0.000000    	1               	;
 O-AV-180        	805.6000    	0.000000    	1               	;
 O-AV-181        	805.3000    	0.000000    	1               	;
 O-AV-182        	855.8000    	0.000000    	1               	;
 O-AV-183        	810.5000    	0.000000    	1               	;
 O-AV-184        	809.8000    	0.000000    	1               	;
 O-AV-185        	810.3000    	0.000000    	1               	;
 O-AV-186        	810.0000    	0.000000    	1               	;
 O-AV-187        	808.9000    	0.000000    	1               	;
 O-AV-188        	1189.3000   	0.000000    	1               	;
 O-AV-189        	1148.1000   	0.000000    	1               	;
 O-AV-19         	1604.6000   	0.000000    	1               	;
 O-AV-190        	978.3000    	0.000000    	1               	;
 O-AV-191        	1428.8000   	0.000000    	1               	;
 O-AV-192        	1037.3000   	0.000000    	1               	;
 O-AV-193        	845.0000    	0.000000    	1               	;
 O-AV-194        	853.5000    	0.000000    	1               	;
 O-AV-195        	858.0000    	0.000000    	1               	;
 O-AV-196        	874.8000    	0.000000    	1               	;
 O-AV-197        	937.2000    	0.000000    	1               	;
 O-AV-198        	961.9000    	0.000000    	1               	;
 O-AV-199        	961.0000    	0.000000    	1               	;
 O-AV-2          	1205.2000   	0.000000    	1               	;
 O-AV-20         	1601.4000   	0.000000    	1               	;
 O-AV-200        	1188.6000   	0.000000    	1               	;
 O-AV-201        	978.5000    	0.000000    	1               	;
 O-AV-202        	1049.6000   	0.000000    	1               	;
 O-AV-203        	1126.9000   	0.000000    	1               	;
 O-AV-204        	1202.1000   	0.000000    	1               	;
 O-AV-205        	1202.1000   	0.000000    	1               	;
 O-AV-206        	942.8000    	0.000000    	1               	;
 O-AV-207        	969.0000    	0.000000    	1               	;
 O-AV-208        	1131.9000   	0.000000    	1               	;
 O-AV-209        	817.9000    	0.000000    	1               	;
 O-AV-21         	1608.6000   	0.000000    	1               	;
 O-AV-210        	818.9000    	0.000000    	1               	;
 O-AV-211        	1097.8000   	0.000000    	1               	;
 O-AV-212        	978.9000    	0.000000    	1               	;
 O-AV-213        	1211.0000   	0.000000    	1               	;
 O-AV-214        	847.0000    	0.000000    	1               	;
 O-AV-215        	867.6000    	0.000000    	1               	;
 O-AV-216        	902.6000    	0.000000    	1               	;
 O-AV-217        	901.9000    	0.000000    	1               	;
 O-AV-218        	927.3000    	0.000000    	1               	;
 O-AV-219        	929.7000    	0.000000    	1               	;
 O-AV-220        	835.1000    	0.000000    	1               	;
 O-AV-221        	874.5000    	0.000000    	1               	;
 O-AV-222        	1095.6000   	0.000000    	1               	;
 O-AV-224        	1271.0000   	0.000000    	1               	;
 O-AV-225        	960.1000    	0.000000    	1               	;
 O-AV-226        	1234.8000   	0.000000    	1               	;
 O-AV-227        	1195.1000   	0.000000    	1               	;
 O-AV-228        	1193.2000   	0.000000    	1               	;
 O-AV-229        	1193.7000   	0.000000    	1               	;
 O-AV-23         	937.2000    	0.000000    	1               	;
 O-AV-230        	1194.5000   	0.000000    	1               	;
 O-AV-231        	1314.2000   	0.000000    	1               	;
 O-AV-232        	1250.3000   	0.000000    	1               	;
 O-AV-233        	1249.8000   	0.000000    	1               	;
 O-AV-234        	1370.8000   	0.000000    	1               	;
 O-AV-235        	1136.9000   	0.000000    	1               	;
 O-AV-236        	1118.5000   	0.000000    	1               	;
 O-AV-237        	1112.9000   	0.000000    	1               	;
 O-AV-238        	1221.8000   	0.000000    	1               	;
 O-AV-239        	1505.8000   	0.000000    	1               	;
 O-AV-24         	1192.7000   	0.000000    	1               	;
 O-AV-240        	1097.8000   	0.000000    	1               	;
 O-AV-241        	1109.8000   	0.000000    	1               	;
 O-AV-242        	1112.3000   	0.000000    	1               	;
 O-AV-243        	1113.8000   	0.000000    	1               	;
 O-AV-244        	1241.5000   	0.000000    	1               	;
 O-AV-245        	1326.8000   	0.000000    	1               	;
 O-AV-246        	1072.3000   	0.000000    	1               	;
 O-AV-247        	888.1000    	0.000000    	1               	;
 O-AV-248        	888.2000    	0.000000    	1               	;
 O-AV-249        	888.7000    	0.000000    	1               	;
 O-AV-25         	1208.3000   	0.000000    	1               	;
 O-AV-250        	1228.1000   	0.000000    	1               	;
 O-AV-251        	929.9000    	0.000000    	1               	;
 O-AV-252        	1721.1000   	0.000000    	1               	;
 O-AV-253        	932.6000    	0.000000    	1               	;
 O-AV-254        	962.2000    	0.000000    	1               	;
 O-AV-255        	972.3000    	0.000000    	1               	;
 O-AV-256        	986.8000    	0.000000    	1               	;
 O-AV-257        	1069.4000   	0.000000    	1               	;
 O-AV-258        	981.7000    	0.000000    	1               	;
 O-AV-259        	1066.8000   	0.000000    	1               	;
 O-AV-26         	941.2000    	0.000000    	1               	;
 O-AV-260        	1028.9000   	0.000000    	1               	;
 O-AV-261        	1105.2000   	0.000000    	1               	;
 O-AV-262        	934.6000    	0.000000    	1               	;
 O-AV-263        	1196.6000   	0.000000    	1               	;
 O-AV-264        	1108.0000   	0.000000    	1               	;
 O-AV-265        	1102.7000   	0.000000    	1               	;
 O-AV-266        	1358.4000   	0.000000    	1               	;
 O-AV-267        	1159.3000   	0.000000    	1               	;
 O-AV-268        	1113.3000   	0.000000    	1               	;
 O-AV-269        	1158.4000   	0.000000    	1               	;
 O-AV-27         	968.5000    	0.000000    	1               	;
 O-AV-270        	1158.1000   	0.000000    	1               	;
 O-AV-271        	1172.5000   	0.000000    	1               	;
 O-AV-272        	1218.4000   	0.000000    	1               	;
 O-AV-273        	1273.4000   	0.000000    	1               	;
 O-AV-274        	1066.8000   	0.000000    	1               	;
 O-AV-275        	1252.0000   	0.000000    	1               	;
 O-AV-276        	1176.5000   	0.000000    	1               	;
 O-AV-277        	1166.2000   	0.000000    	1               	;
 O-AV-278        	1166.0000   	0.000000    	1               	;
 O-AV-279        	1047.6000   	0.000000    	1               	;
 O-AV-28         	970.3000    	0.000000    	1               	;
 O-AV-280        	1363.0000   	0.000000    	1               	;
 O-AV-281        	1166.0000   	0.000000    	1               	;
 O-AV-282        	1161.6000   	0.000000    	1               	;
 O-AV-283        	1165.2000   	0.000000    	1               	;
 O-AV-284        	1197.3000   	0.000000    	1               	;
 O-AV-286        	1072.3000   	0.000000    	1               	;
 O-AV-287        	1180.6000   	0.000000    	1               	;
 O-AV-288        	1235.0000   	0.000000    	1               	;
 O-AV-289        	1093.6000   	0.000000    	1               	;
 O-AV-29         	1020.5000   	0.000000    	1               	;
 O-AV-290        	1159.3000   	0.000000    	1               	;
 O-AV-291        	1252.1000   	0.000000    	1               	;
 O-AV-292        	1072.6000   	0.000000    	1               	;
 O-AV-293        	1082.4000   	0.000000    	1               	;
 O-AV-294        	1206.8000   	0.000000    	1               	;
 O-AV-295        	1186.5000   	0.000000    	1               	;
 O-AV-296        	1076.5000   	0.000000    	1               	;
 O-AV-297        	1076.1000   	0.000000    	1               	;
 O-AV-298        	1078.5000   	0.000000    	1               	;
 O-AV-3          	1145.8000   	0.000000    	1               	;
 O-AV-300        	1077.8000   	0.000000    	1               	;
 O-AV-301        	1081.7000   	0.000000    	1               	;
 O-AV-302        	1078.2000   	0.000000    	1               	;
 O-AV-303        	1135.0000   	0.000000    	1               	;
 O-AV-304        	1134.7000   	0.000000    	1               	;
 O-AV-305        	1179.2000   	0.000000    	1               	;
 O-AV-306        	1270.6000   	0.000000    	1               	;
 O-AV-307        	1093.2000   	0.000000    	1               	;
 O-AV-308        	1270.2000   	0.000000    	1               	;
 O-AV-309        	1272.7000   	0.000000    	1               	;
 O-AV-310        	1625.0000   	0.000000    	1               	;
 O-AV-312        	945.2000    	0.000000    	1               	;
 O-AV-313        	1610.6000   	0.000000    	1               	;
 O-AV-314        	1227.7000   	0.000000    	1               	;
 O-AV-315        	1225.3000   	0.000000    	1               	;
 O-AV-316        	1205.2000   	0.000000    	1               	;
 O-AV-317        	1197.2000   	0.000000    	1               	;
 O-AV-318        	1196.8000   	0.000000    	1               	;
 O-AV-319        	1134.5000   	0.000000    	1               	;
 O-AV-320        	1122.8000   	0.000000    	1               	;
 O-AV-321        	1101.9000   	0.000000    	1               	;
 O-AV-322        	1051.6000   	0.000000    	1               	;
 O-AV-323        	791.9000    	0.000000    	1               	;
 O-AV-325        	1065.1000   	0.000000    	1               	;
 O-AV-326        	1051.9000   	0.000000    	1               	;
 O-AV-327        	1017.5000   	0.000000    	1               	;
 O-AV-328        	1008.1000   	0.000000    	1               	;
 O-AV-329        	1010.0000   	0.000000    	1               	;
 O-AV-330        	1009.9000   	0.000000    	1               	;
 O-AV-331        	1017.5000   	0.000000    	1               	;
 O-AV-332        	1013.2000   	0.000000    	1               	;
 O-AV-333        	1067.1000   	0.000000    	1               	;
 O-AV-335        	864.6000    	0.000000    	1               	;
 O-AV-336        	1021.2000   	0.000000    	1               	;
 O-AV-337        	1184.1000   	0.000000    	1               	;
 O-AV-338        	1013.5000   	0.000000    	1               	;
 O-AV-339        	1002.5000   	0.000000    	1               	;
 O-AV-34         	978.4000    	0.000000    	1               	;
 O-AV-340        	1074.7000   	0.000000    	1               	;
 O-AV-341        	1075.3000   	0.000000    	1               	;
 O-AV-342        	1138.5000   	0.000000    	1               	;
 O-AV-343        	1137.8000   	0.000000    	1               	;
 O-AV-344        	996.9000    	0.000000    	1               	;
 O-AV-345        	1001.2000   	0.000000    	1               	;
 O-AV-346        	802.2000    	0.000000    	1               	;
 O-AV-347        	984.0000    	0.000000    	1               	;
 O-AV-348        	984.3000    	0.000000    	1               	;
 O-AV-35         	1034.2000   	0.000000    	1               	;
 O-AV-350        	1080.9000   	0.000000    	1               	;
 O-AV-351        	1059.7000   	0.000000    	1               	;
 O-AV-353        	969.4000    	0.000000    	1               	;
 O-AV-354        	960.1000    	0.000000    	1               	;
 O-AV-355        	960.6000    	0.000000    	1               	;
 O-AV-356        	955.1000    	0.000000    	1               	;
 O-AV-357        	787.6000    	0.000000    	1               	;
 O-AV-358        	959.4000    	0.000000    	1               	;
 O-AV-359        	954.9000    	0.000000    	1               	;
 O-AV-36         	984.5000    	0.000000    	1               	;
 O-AV-360        	1035.3000   	0.000000    	1               	;
 O-AV-361        	1034.5000   	0.000000    	1               	;
 O-AV-364        	920.2000    	0.000000    	1               	;
 O-AV-365        	1152.6000   	0.000000    	1               	;
 O-AV-366        	1110.5000   	0.000000    	1               	;
 O-AV-367        	1100.6000   	0.000000    	1               	;
 O-AV-368        	787.5000    	0.000000    	1               	;
 O-AV-369        	1098.6000   	0.000000    	1               	;
 O-AV-37         	995.7000    	0.000000    	1               	;
 O-AV-370        	1102.3000   	0.000000    	1               	;
 O-AV-371        	1114.3000   	0.000000    	1               	;
 O-AV-372        	1114.2000   	0.000000    	1               	;
 O-AV-373        	1125.2000   	0.000000    	1               	;
 O-AV-374        	1085.9000   	0.000000    	1               	;
 O-AV-375        	1048.8000   	0.000000    	1               	;
 O-AV-376        	941.8000    	0.000000    	1               	;
 O-AV-377        	1083.3000   	0.000000    	1               	;
 O-AV-378        	1084.8000   	0.000000    	1               	;
 O-AV-379        	788.1000    	0.000000    	1               	;
 O-AV-38         	1213.7000   	0.000000    	1               	;
 O-AV-380        	1072.4000   	0.000000    	1               	;
 O-AV-381        	1130.7000   	0.000000    	1               	;
 O-AV-382        	1127.4000   	0.000000    	1               	;
 O-AV-383        	1142.2000   	0.000000    	1               	;
 O-AV-384        	1130.8000   	0.000000    	1               	;
 O-AV-385        	1186.6000   	0.000000    	1               	;
 O-AV-388        	957.5000    	0.000000    	1               	;
 O-AV-389        	1058.1000   	0.000000    	1               	;
 O-AV-39         	1048.4000   	0.000000    	1               	;
 O-AV-390        	780.7000    	0.000000    	1               	;
 O-AV-393        	1098.3000   	0.000000    	1               	;
 O-AV-394        	1098.5000   	0.000000    	1               	;
 O-AV-395        	1098.5000   	0.000000    	1               	;
 O-AV-396        	1102.7000   	0.000000    	1               	;
 O-AV-398        	1132.8000   	0.000000    	1               	;
 O-AV-399        	1136.4000   	0.000000    	1               	;
 O-AV-40         	1045.3000   	0.000000    	1               	;
 O-AV-400        	952.8000    	0.000000    	1               	;
 O-AV-401        	1081.0000   	0.000000    	1               	;
 O-AV-402        	1142.2000   	0.000000    	1               	;
 O-AV-403        	1057.0000   	0.000000    	1               	;
 O-AV-404        	1140.7000   	0.000000    	1               	;
 O-AV-405        	1157.2000   	0.000000    	1               	;
 O-AV-407        	1172.5000   	0.000000    	1               	;
 O-AV-408        	1128.9000   	0.000000    	1               	;
 O-AV-409        	1119.6000   	0.000000    	1               	;
 O-AV-41         	1090.1000   	0.000000    	1               	;
 O-AV-410        	1110.1000   	0.000000    	1               	;
 O-AV-411        	1126.9000   	0.000000    	1               	;
 O-AV-412        	763.5000    	0.000000    	1               	;
 O-AV-413        	1003.9000   	0.000000    	1               	;
 O-AV-414        	1125.8000   	0.000000    	1               	;
 O-AV-416        	1039.0000   	0.000000    	1               	;
 O-AV-418        	1125.2000   	0.000000    	1               	;
 O-AV-42         	1019.6000   	0.000000    	1               	;
 O-AV-420        	1115.1000   	0.000000    	1               	;
 O-AV-421        	1115.1000   	0.000000    	1               	;
 O-AV-422        	1132.3000   	0.000000    	1               	;
 O-AV-423        	741.3000    	0.000000    	1               	;
 O-AV-424        	1134.3000   	0.000000    	1               	;
 O-AV-425        	1104.7000   	0.000000    	1               	;
 O-AV-427        	741.3000    	0.000000    	1               	;
 O-AV-428        	765.8000    	0.000000    	1               	;
 O-AV-429        	758.2000    	0.000000    	1               	;
 O-AV-430        	813.5000    	0.000000    	1               	;
 O-AV-431        	735.0000    	0.000000    	1               	;
 O-AV-432        	936.2000    	0.000000    	1               	;
 O-AV-433        	929.1000    	0.000000    	1               	;
 O-AV-434        	1082.6000   	0.000000    	1               	;
 O-AV-435        	1122.9000   	0.000000    	1               	;
 O-AV-436        	1254.3000   	0.000000    	1               	;
 O-AV-437        	1093.2000   	0.000000    	1               	;
 O-AV-438        	1253.5000   	0.000000    	1               	;
 O-AV-439        	1106.8000   	0.000000    	1               	;
 O-AV-44         	1027.6000   	0.000000    	1               	;
 O-AV-441        	1051.3000   	0.000000    	1               	;
 O-AV-442        	1051.7000   	0.000000    	1               	;
 O-AV-443        	1051.3000   	0.000000    	1               	;
 O-AV-444        	951.9000    	0.000000    	1               	;
 O-AV-445        	1051.7000   	0.000000    	1               	;
 O-AV-446        	992.8000    	0.000000    	1               	;
 O-AV-447        	1274.3000   	0.000000    	1               	;
 O-AV-448        	1155.1000   	0.000000    	1               	;
 O-AV-449        	1249.9000   	0.000000    	1               	;
 O-AV-450        	1089.5000   	0.000000    	1               	;
 O-AV-451        	1252.4000   	0.000000    	1               	;
 O-AV-454        	1338.3000   	0.000000    	1               	;
 O-AV-456        	1327.0000   	0.000000    	1               	;
 O-AV-457        	1327.0000   	0.000000    	1               	;
 O-AV-458        	992.6000    	0.000000    	1               	;
 O-AV-459        	1164.7000   	0.000000    	1               	;
 O-AV-461        	1077.3000   	0.000000    	1               	;
 O-AV-462        	1084.1000   	0.000000    	1               	;
 O-AV-463        	1082.1000   	0.000000    	1               	;
 O-AV-464        	1054.1000   	0.000000    	1               	;
 O-AV-465        	1133.4000   	0.000000    	1               	;
 O-AV-466        	1195.8000   	0.000000    	1               	;
 O-AV-467        	1159.2000   	0.000000    	1               	;
 O-AV-468        	1161.5000   	0.000000    	1               	;
 O-AV-469        	1159.8000   	0.000000    	1               	;
 O-AV-47         	1047.4000   	0.000000    	1               	;
 O-AV-470        	1199.6000   	0.000000    	1               	;
 O-AV-472        	1153.4000   	0.000000    	1               	;
 O-AV-473        	1222.4000   	0.000000    	1               	;
 O-AV-474        	1330.3000   	0.000000    	1               	;
 O-AV-475        	1330.1000   	0.000000    	1               	;
 O-AV-476        	1215.3000   	0.000000    	1               	;
 O-AV-477        	1330.4000   	0.000000    	1               	;
 O-AV-478        	1336.6000   	0.000000    	1               	;
 O-AV-479        	1363.8000   	0.000000    	1               	;
 O-AV-48         	1036.9000   	0.000000    	1               	;
 O-AV-480        	1342.4000   	0.000000    	1               	;
 O-AV-49         	1062.6000   	0.000000    	1               	;
 O-AV-5          	1145.8000   	0.000000    	1               	;
 O-AV-50         	1100.5000   	0.000000    	1               	;
 O-AV-51         	1583.0000   	0.000000    	1               	;
 O-AV-52         	832.7000    	0.000000    	1               	;
 O-AV-53         	1064.9000   	0.000000    	1               	;
 O-AV-54         	807.6000    	0.000000    	1               	;
 O-AV-55         	1051.5000   	0.000000    	1               	;
 O-AV-56         	1066.9000   	0.000000    	1               	;
 O-AV-58         	1066.7000   	0.000000    	1               	;
 O-AV-59         	1263.2000   	0.000000    	1               	;
 O-AV-6          	1107.6000   	0.000000    	1               	;
 O-AV-60         	1284.6000   	0.000000    	1               	;
 O-AV-61         	1335.0000   	0.000000    	1               	;
 O-AV-62         	1195.8000   	0.000000    	1               	;
 O-AV-63         	1165.9000   	0.000000    	1               	;
 O-AV-64         	1142.6000   	0.000000    	1               	;
 O-AV-65         	1069.2000   	0.000000    	1               	;
 O-AV-66         	1143.4000   	0.000000    	1               	;
 O-AV-67         	1147.6000   	0.000000    	1               	;
 O-AV-68         	1165.6000   	0.000000    	1               	;
 O-AV-69         	1163.5000   	0.000000    	1               	;
 O-AV-7          	1106.8000   	0.000000    	1               	;
 O-AV-70         	1164.4000   	0.000000    	1               	;
 O-AV-71         	1387.4000   	0.000000    	1               	;
 O-AV-72         	1052.2000   	0.000000    	1               	;
 O-AV-73         	1156.1000   	0.000000    	1               	;
 O-AV-74         	1056.2000   	0.000000    	1               	;
 O-AV-75         	1046.1000   	0.000000    	1               	;
 O-AV-76         	1089.3000   	0.000000    	1               	;
 O-AV-77         	1068.6000   	0.000000    	1               	;
 O-AV-78         	1098.8000   	0.000000    	1               	;
 O-AV-79         	1142.0000   	0.000000    	1               	;
 O-AV-8          	1248.4000   	0.000000    	1               	;
 O-AV-80         	1099.4000   	0.000000    	1               	;
 O-AV-81         	1100.3000   	0.000000    	1               	;
 O-AV-82         	1166.5000   	0.000000    	1               	;
 O-AV-83         	1163.3000   	0.000000    	1               	;
 O-AV-84         	1154.1000   	0.000000    	1               	;
 O-AV-85         	1156.7000   	0.000000    	1               	;
 O-AV-86         	1213.3000   	0.000000    	1               	;
 O-AV-87         	1444.6000   	0.000000    	1               	;
 O-AV-88         	1077.8000   	0.000000    	1               	;
 O-AV-89         	1066.5000   	0.000000    	1               	;
 O-AV-9          	1248.5000   	0.000000    	1               	;
 O-AV-90         	1093.1000   	0.000000    	1               	;
 O-AV-91         	1078.0000   	0.000000    	1               	;
 O-AV-92         	1077.6000   	0.000000    	1               	;
 O-AV-93         	1078.0000   	0.000000    	1               	;
 O-AV-94         	1112.7000   	0.000000    	1               	;
 O-AV-95         	1168.9000   	0.000000    	1               	;
 O-AV-96         	1085.0000   	0.000000    	1               	;
 O-AV-97         	1519.3000   	0.000000    	1               	;
 O-AV-98         	1090.3000   	0.000000    	1               	;
 O-AV-99         	1144.7000   	0.000000    	1               	;
 O-Dry_Creek     	810.1000    	0.000000    	1               	;
 O-Elk_Glenn     	1061.0000   	0.000000    	1               	;
 O-Hollybush     	997.1000    	0.000000    	1               	;
 I-HWY_80a       	1251.6000   	0.000000    	1               	;
 I-Kelly_Fork    	1202.9000   	0.000000    	1               	;
 O-Kelly_Fork_1  	1439.5000   	0.000000    	1               	;
 O-Knob_Botttom  	1229.0000   	0.000000    	1               	;
 I-Ogden_Vest    	1331.9000   	0.000000    	1               	;
 O-Output_Pump   	1021.8000   	0.000000    	1               	;
 I-Perkins_Madden	908.1000    	0.000000    	1               	;
 O-Possum_trot   	1345.3000   	0.000000    	1               	;
 I-Rock_Forka    	731.9000    	0.000000    	1               	;
 O-Short_Fork    	1303.3000   	0.000000    	1               	;
 O-Slone_FK      	1035.4000   	0.000000    	1               	;
 I-Slone_Fork_1  	1632.9000   	0.000000    	1               	;
 O-Trace_Caney   	1286.9000   	0.000000    	1               	;
 O-Wiley_Fork    	1259.6000   	0.000000    	1               	;
 O-Wilson_Branch 	1250.9000   	0.000000    	1               	;
 O-Wolfepen_Creek	1215.0000   	0.000000    	1               	;
 I-Yellow_Creek  	1149.4000   	0.000000    	1               	;

[RESERVOIRS]
;ID              	Head        	Pattern         
 Surf_SRC        	1250.0000   	                	;

[TANKS]
;ID              	Elevation   	InitLevel   	MinLevel    	MaxLevel    	Diameter    	MinVol      	VolCurve        	Overflow
 1               	1600.0000   	1605.0000   	1600.0000   	1615.0000   	50.0000     	3141592.6540	                	;
 2               	1600.0000   	1627.0000   	1600.0000   	1637.0000   	50.0000     	3141592.6540	                	;
 3               	1726.0000   	1736.0000   	1726.0000   	1746.0000   	50.0000     	3388993.0755	                	;
 4               	1690.0000   	1707.0000   	1700.0000   	1715.0000   	50.0000     	3337942.1949	                	;
 5               	1490.0000   	1502.0000   	1490.0000   	1512.0000   	50.0000     	2925608.1590	                	;
 6               	1425.0000   	1435.0000   	1425.0000   	1445.0000   	50.0000     	2797980.9575	                	;
 7               	1425.0000   	1435.0000   	1425.0000   	1445.0000   	50.0000     	2797980.9575	                	;
 8               	1535.0000   	1560.0000   	1535.0000   	1570.0000   	50.0000     	3013965.4524	                	;
 9               	1390.0000   	1405.0000   	1390.0000   	1415.0000   	50.0000     	2729258.6182	                	;
 10              	1180.0000   	1187.0000   	1180.0000   	1195.0000   	50.0000     	2316924.5823	                	;
 11              	1180.0000   	1187.0000   	1180.0000   	1195.0000   	50.0000     	2316924.5823	                	;
 12              	1050.0000   	1065.0000   	1050.0000   	1075.0000   	50.0000     	2061670.1792	                	;
 13              	1655.0000   	1665.0000   	1655.0000   	1675.0000   	50.0000     	3249584.9015	                	;
 14              	1430.0000   	1437.0000   	1430.0000   	1445.0000   	50.0000     	2807798.4345	                	;

[PIPES]
;ID              	Node1           	Node2           	Length      	Diameter    	Roughness   	MinorLoss   	Status
 P-1             	J-1             	O-AV-17         	5397.3500   	8.0000      	149.0000    	0.0000      	Open  	;
 P-10            	J-18            	J-19            	3690.0300   	8.0000      	149.0000    	0.0000      	Open  	;
 P-100           	J-179           	O-AV-169        	1232.0690   	12.0000     	142.0000    	0.0000      	Open  	;
 P-1000          	J-1164          	O-AV-411        	733.2100    	3.0000      	137.0000    	0.0000      	Open  	;
 P-1001          	J-1161          	I-AV-410        	5.3090      	3.0000      	137.0000    	0.0000      	Open  	;
 P-1002          	I-AV-456        	O-AV-457        	3.0790      	8.0000      	149.0000    	0.0000      	Open  	;
 P-1003          	J-186           	J-95            	512.4890    	12.0000     	142.0000    	0.0000      	Open  	;
 P-1004          	J-1166          	J-170           	319.6600    	12.0000     	142.0000    	0.0000      	Open  	;
 P-1005          	J-586           	O-AV-135        	242.1790    	3.0000      	137.0000    	0.0000      	Open  	;
 P-1006          	I-AV-457        	J-916           	733.2890    	8.0000      	149.0000    	0.0000      	Open  	;
 P-1007          	J-1168          	J-1169          	1671.4790   	3.0000      	137.0000    	0.0000      	Open  	;
 P-1008          	J-1169          	J-1170          	1191.2090   	3.0000      	137.0000    	0.0000      	Open  	;
 P-1009          	J-1172          	O-AV-179        	1839.1890   	12.0000     	142.0000    	0.0000      	Open  	;
 P-101           	J-181           	J-182           	3909.1000   	12.0000     	150.0000    	0.0000      	Open  	;
 P-1010          	J-70            	J-945           	1403.9790   	6.0000      	149.0000    	0.0000      	Open  	;
 P-1011          	J-1174          	O-AV-277        	2060.5700   	12.0000     	142.0000    	0.0000      	Open  	;
 P-1012          	J-1176          	O-AV-284        	1166.6600   	12.0000     	142.0000    	0.0000      	Open  	;
 P-1013          	J-58            	O-AV-315        	301.1790    	12.0000     	142.0000    	0.0000      	Open  	;
 P-1015          	J-1178          	J-1179          	35.9300     	16.0000     	142.0000    	0.0000      	Open  	;
 P-1016          	J-1180          	J-163           	9.1890      	16.0000     	142.0000    	0.0000      	Open  	;
 P-1017          	J-1181          	J-1180          	1.1000      	16.0000     	142.0000    	0.0000      	Open  	;
 P-1018          	J-1181          	O-AV-291        	5.6300      	16.0000     	142.0000    	0.0000      	Open  	;
 P-1019          	I-AV-461        	J-1735          	1145.6500   	3.0000      	147.0000    	0.0000      	Open  	;
 P-102           	J-123           	J-120           	1273.2800   	12.0000     	142.0000    	0.0000      	Open  	;
 P-1021          	I-AV-462        	J-1113          	9.5390      	3.0000      	147.0000    	0.0000      	Open  	;
 P-1022          	J-817           	O-AV-288        	1549.0890   	12.0000     	142.0000    	0.0000      	Open  	;
 P-1023          	J-1184          	J-1185          	1630.8390   	3.0000      	137.0000    	0.0000      	Open  	;
 P-1024          	J-1176          	J-129           	219.4790    	3.0000      	137.0000    	0.0000      	Open  	;
 P-1025          	J-1176          	J-813           	586.4000    	12.0000     	142.0000    	0.0000      	Open  	;
 P-1026          	J-857           	O-AV-245        	2997.2390   	3.0000      	137.0000    	0.0000      	Open  	;
 P-1027          	J-857           	O-AV-244        	10.3990     	3.0000      	137.0000    	0.0000      	Open  	;
 P-1028          	J-1188          	J-426           	1501.2700   	8.0000      	149.0000    	0.0000      	Open  	;
 P-1029          	J-1189          	J-1188          	1284.5000   	3.0000      	147.0000    	0.0000      	Open  	;
 P-103           	J-117           	J-183           	5684.3300   	12.0000     	142.0000    	0.0000      	Open  	;
 P-1030          	J-1190          	O-AV-70         	3.3800      	8.0000      	149.0000    	0.0000      	Open  	;
 P-1031          	J-1190          	O-AV-69         	13.4790     	8.0000      	149.0000    	0.0000      	Open  	;
 P-1032          	I-AV-463        	J-1254          	4.8490      	3.0000      	147.0000    	0.0000      	Open  	;
 P-1033          	J-658           	J-547           	23.9890     	8.0000      	149.0000    	0.0000      	Open  	;
 P-1034          	J-1193          	J-1194          	1733.2800   	8.0000      	149.0000    	0.0000      	Open  	;
 P-1035          	J-520           	O-AV-376        	9.1590      	8.0000      	149.0000    	0.0000      	Open  	;
 P-1036          	J-1194          	O-AV-364        	1.9600      	8.0000      	149.0000    	0.0000      	Open  	;
 P-1037          	J-1194          	J-395           	432.2790    	8.0000      	140.0000    	0.0000      	Open  	;
 P-1038          	J-395           	J-1196          	449.2300    	8.0000      	140.0000    	0.0000      	Open  	;
 P-1039          	J-1196          	J-1197          	1.3890      	8.0000      	140.0000    	0.0000      	Open  	;
 P-104           	J-117           	J-128           	3297.8990   	12.0000     	142.0000    	0.0000      	Open  	;
 P-1040          	J-73            	O-AV-262        	355.3500    	8.0000      	149.0000    	0.0000      	Open  	;
 P-1041          	J-1198          	O-AV-356        	1018.5000   	3.0000      	147.0000    	0.0000      	Open  	;
 P-1042          	J-1200          	J-1125          	247.1000    	8.0000      	149.0000    	0.0000      	Open  	;
 P-1043          	J-1201          	J-75            	1709.5890   	4.0000      	147.0000    	0.0000      	Open  	;
 P-1044          	I-AV-464        	J-1111          	5.1790      	3.0000      	147.0000    	0.0000      	Open  	;
 P-1045          	J-1202          	J-75            	356.2300    	3.0000      	147.0000    	0.0000      	Open  	;
 P-1046          	J-1204          	O-AV-360        	1949.5200   	4.0000      	147.0000    	0.0000      	Open  	;
 P-1047          	I-AV-465        	J-1112          	2389.3100   	3.0000      	147.0000    	0.0000      	Open  	;
 P-1048          	J-1206          	O-AV-347        	1887.5100   	8.0000      	149.0000    	0.0000      	Open  	;
 P-1049          	J-841           	I-AV-256        	5220.9390   	6.0000      	142.0000    	0.0000      	Open  	;
 P-105           	J-109           	O-AV-305        	1968.2190   	12.0000     	142.0000    	0.0000      	Open  	;
 P-1050          	J-842           	O-AV-253        	36.5990     	12.0000     	142.0000    	0.0000      	Open  	;
 P-1051          	J-833           	O-AV-251        	1446.4790   	6.0000      	142.0000    	0.0000      	Open  	;
 P-1052          	J-1207          	J-236           	105.2300    	8.0000      	149.0000    	0.0000      	Open  	;
 P-1053          	J-1208          	J-1209          	817.0300    	3.0000      	147.0000    	0.0000      	Open  	;
 P-1054          	J-1210          	J-1211          	342.1790    	3.0000      	147.0000    	0.0000      	Open  	;
 P-1055          	J-1208          	J-1212          	477.3800    	3.0000      	147.0000    	0.0000      	Open  	;
 P-1056          	J-1209          	J-1213          	7.2390      	3.0000      	147.0000    	0.0000      	Open  	;
 P-1057          	J-1206          	J-1214          	203.9600    	3.0000      	147.0000    	0.0000      	Open  	;
 P-1058          	J-1210          	I-AV-353        	9.2290      	3.0000      	147.0000    	0.0000      	Open  	;
 P-1059          	J-1214          	J-55            	72.0690     	3.0000      	147.0000    	0.0000      	Open  	;
 P-106           	J-115           	O-AV-314        	3756.6890   	12.0000     	142.0000    	0.0000      	Open  	;
 P-1060          	J-1212          	J-1215          	2.4800      	3.0000      	147.0000    	0.0000      	Open  	;
 P-1061          	J-1211          	J-1216          	1.4900      	3.0000      	147.0000    	0.0000      	Open  	;
 P-1062          	J-474           	J-1217          	366.7790    	8.0000      	149.0000    	0.0000      	Open  	;
 P-1063          	J-1217          	O-AV-340        	2.8090      	3.0000      	147.0000    	0.0000      	Open  	;
 P-1064          	J-1219          	J-1055          	603.1300    	3.0000      	147.0000    	0.0000      	Open  	;
 P-1065          	J-1055          	O-AV-341        	1407.4300   	8.0000      	149.0000    	0.0000      	Open  	;
 P-1066          	J-1221          	J-1222          	2001.9590   	8.0000      	149.0000    	0.0000      	Open  	;
 P-1067          	J-1054          	J-1223          	1052.0200   	3.0000      	147.0000    	0.0000      	Open  	;
 P-1068          	I-AV-466        	J-294           	2389.9890   	6.0000      	149.0000    	0.0000      	Open  	;
 P-1069          	J-141           	O-AV-330        	2.2690      	8.0000      	149.0000    	0.0000      	Open  	;
 P-107           	J-187           	J-188           	1183.9100   	12.0000     	142.0000    	0.0000      	Open  	;
 P-1070          	I-AV-467        	O-AV-468        	7.2500      	6.0000      	149.0000    	0.0000      	Open  	;
 P-1071          	J-1225          	O-AV-329        	3.5090      	8.0000      	149.0000    	0.0000      	Open  	;
 P-1072          	J-182           	O-AV-322        	1615.1090   	3.0000      	147.0000    	0.0000      	Open  	;
 P-1073          	J-182           	J-1227          	837.4400    	12.0000     	150.0000    	0.0000      	Open  	;
 P-1074          	J-1227          	O-AV-325        	49.0090     	12.0000     	150.0000    	0.0000      	Open  	;
 P-1075          	J-63            	J-1229          	568.6190    	3.0000      	147.0000    	0.0000      	Open  	;
 P-1076          	I-AV-468        	J-304           	6.3800      	6.0000      	149.0000    	0.0000      	Open  	;
 P-1077          	J-57            	O-AV-319        	5.9400      	12.0000     	150.0000    	0.0000      	Open  	;
 P-1078          	I-AV-469        	J-1730          	2.1090      	6.0000      	149.0000    	0.0000      	Open  	;
 P-1079          	J-1230          	O-AV-266        	8.9390      	16.0000     	142.0000    	0.0000      	Open  	;
 P-108           	J-189           	J-35            	57.3400     	12.0000     	142.0000    	0.0000      	Open  	;
 P-1080          	I-AV-472        	J-1135          	2970.2390   	3.0000      	147.0000    	0.0000      	Open  	;
 P-1081          	I-AV-473        	J-246           	1665.5000   	6.0000      	149.0000    	0.0000      	Open  	;
 P-1082          	I-AV-474        	O-AV-475        	4.6190      	6.0000      	142.0000    	0.0000      	Open  	;
 P-1083          	I-AV-475        	J-728           	24.7000     	6.0000      	142.0000    	0.0000      	Open  	;
 P-1084          	I-AV-476        	J-1247          	19.0100     	4.0000      	147.0000    	0.0000      	Open  	;
 P-1085          	I-AV-477        	O-AV-474        	7.4490      	6.0000      	142.0000    	0.0000      	Open  	;
 P-1086          	J-164           	J-169           	110.1800    	16.0000     	142.0000    	0.0000      	Open  	;
 P-1087          	J-1237          	O-AV-211        	12.9200     	12.0000     	142.0000    	0.0000      	Open  	;
 P-1088          	J-1238          	J-1239          	7.6990      	12.0000     	142.0000    	0.0000      	Open  	;
 P-1089          	J-1240          	J-1241          	9.3190      	12.0000     	142.0000    	0.0000      	Open  	;
 P-109           	J-34            	J-189           	44.4390     	12.0000     	142.0000    	0.0000      	Open  	;
 P-1090          	J-1243          	O-AV-25         	178.5700    	4.0000      	147.0000    	0.0000      	Open  	;
 P-1091          	J-1243          	O-AV-38         	80.3600     	4.0000      	147.0000    	0.0000      	Open  	;
 P-1092          	J-1244          	J-1245          	1756.7600   	4.0000      	147.0000    	0.0000      	Open  	;
 P-1093          	I-AV-478        	I-Ogden_Vest    	8.9300      	6.0000      	142.0000    	0.0000      	Open  	;
 P-1094          	I-AV-479        	J-730           	54.3890     	6.0000      	142.0000    	0.0000      	Open  	;
 P-1095          	I-AV-480        	J-273           	8937.4400   	6.0000      	149.0000    	0.0000      	Open  	;
 P-1096          	J-1249          	J-1250          	2.3090      	4.0000      	147.0000    	0.0000      	Open  	;
 P-1097          	J-1251          	I-Wolfepen_Creek	8.7600      	4.0000      	147.0000    	0.0000      	Open  	;
 P-1098          	J-456           	J-1251          	9.2700      	4.0000      	147.0000    	0.0000      	Open  	;
 P-1099          	J-1250          	J-456           	1.2890      	4.0000      	147.0000    	0.0000      	Open  	;
 P-11            	J-21            	O-AV-316        	1124.2390   	8.0000      	149.0000    	0.0000      	Open  	;
 P-110           	J-35            	O-AV-306        	3044.6100   	12.0000     	142.0000    	0.0000      	Open  	;
 P-1100          	J-1252          	J-347           	452.7000    	12.0000     	150.0000    	0.0000      	Open  	;
 P-1101          	J-1253          	J-1254          	431.7090    	3.0000      	147.0000    	0.0000      	Open  	;
 P-1102          	J-1252          	O-AV-463        	92.1100     	3.0000      	147.0000    	0.0000      	Open  	;
 P-1103          	J-1256          	I-AV-450        	1.7000      	12.0000     	150.0000    	0.0000      	Open  	;
 P-1104          	J-989           	J-1256          	12.9390     	12.0000     	150.0000    	0.0000      	Open  	;
 P-1105          	J-998           	J-999           	87.6390     	6.0000      	142.0000    	0.0000      	Open  	;
 P-1106          	J-998           	J-1257          	17.0790     	16.0000     	142.0000    	0.0000      	Open  	;
 P-1107          	J-463           	O-AV-389        	427.4500    	16.0000     	142.0000    	0.0000      	Open  	;
 P-1108          	J-463           	O-AV-416        	889.0000    	3.0000      	137.0000    	0.0000      	Open  	;
 P-1109          	J-1260          	O-AV-89         	26.5000     	12.0000     	142.0000    	0.0000      	Open  	;
 P-111           	J-19            	J-191           	196.7290    	12.0000     	142.0000    	0.0000      	Open  	;
 P-1110          	O-AV-3          	J-977           	2.4500      	3.0000      	147.0000    	0.0000      	Open  	;
 P-1111          	J-1261          	J-397           	1126.3290   	12.0000     	142.0000    	0.0000      	Open  	;
 P-1112          	J-732           	O-AV-290        	26.1290     	6.0000      	149.0000    	0.0000      	Open  	;
 P-1113          	I-AV-5          	J-273           	10.5600     	6.0000      	149.0000    	0.0000      	Open  	;
 P-1114          	O-AV-6          	J-212           	988.8400    	8.0000      	149.0000    	0.0000      	Open  	;
 P-1115          	I-AV-7          	J-424           	425.5400    	6.0000      	149.0000    	0.0000      	Open  	;
 P-1116          	I-AV-8          	O-AV-9          	4.1190      	6.0000      	149.0000    	0.0000      	Open  	;
 P-1117          	I-AV-9          	J-1068          	126.4700    	6.0000      	149.0000    	0.0000      	Open  	;
 P-1118          	J-283           	O-AV-82         	187.3090    	6.0000      	149.0000    	0.0000      	Open  	;
 P-1119          	I-AV-10         	O-AV-476        	4.5900      	4.0000      	147.0000    	0.0000      	Open  	;
 P-112           	J-178           	O-AV-172        	5120.0400   	12.0000     	142.0000    	0.0000      	Open  	;
 P-1120          	I-AV-11         	J-759           	8.9300      	6.0000      	149.0000    	0.0000      	Open  	;
 P-1121          	J-1269          	I-Yellow_Creek  	63.3490     	6.0000      	149.0000    	0.0000      	Open  	;
 P-1122          	J-88            	I-Kelly_Fork    	15.3590     	4.0000      	147.0000    	0.0000      	Open  	;
 P-1123          	I-AV-12         	O-AV-14         	1583.0690   	6.0000      	149.0000    	0.0000      	Open  	;
 P-1124          	J-1271          	J-337           	5.9890      	4.0000      	147.0000    	0.0000      	Open  	;
 P-1125          	J-358           	O-AV-87         	35.7790     	3.0000      	147.0000    	0.0000      	Open  	;
 P-1126          	J-806           	I-AV-178        	4.6790      	3.0000      	137.0000    	0.0000      	Open  	;
 P-1127          	J-806           	O-AV-180        	1454.0400   	12.0000     	142.0000    	0.0000      	Open  	;
 P-1128          	I-AV-14         	J-286           	9.9600      	6.0000      	149.0000    	0.0000      	Open  	;
 P-1129          	I-AV-15         	J-562           	1127.0890   	6.0000      	149.0000    	0.0000      	Open  	;
 P-113           	J-194           	O-AV-247        	400.2690    	12.0000     	142.0000    	0.0000      	Open  	;
 P-1130          	J-1275          	O-AV-182        	1367.3900   	12.0000     	142.0000    	0.0000      	Open  	;
 P-1131          	J-65            	J-958           	376.7600    	8.0000      	149.0000    	0.0000      	Open  	;
 P-1132          	J-960           	J-1276          	1082.7500   	2.0000      	140.0000    	0.0000      	Open  	;
 P-1133          	J-959           	J-961           	373.0590    	8.0000      	149.0000    	0.0000      	Open  	;
 P-1134          	J-454           	O-AV-207        	753.8800    	6.0000      	149.0000    	0.0000      	Open  	;
 P-1135          	J-1277          	O-AV-208        	1164.7700   	6.0000      	149.0000    	0.0000      	Open  	;
 P-1136          	J-445           	J-1278          	2361.3300   	8.0000      	149.0000    	0.0000      	Open  	;
 P-1137          	J-1279          	J-1280          	6.1990      	8.0000      	149.0000    	0.0000      	Open  	;
 P-1138          	J-1279          	O-AV-199        	647.4500    	2.0000      	140.0000    	0.0000      	Open  	;
 P-1139          	I-AV-18         	O-AV-19         	20.2090     	8.0000      	149.0000    	0.0000      	Open  	;
 P-114           	J-195           	J-196           	7458.5200   	12.0000     	142.0000    	0.0000      	Open  	;
 P-1140          	J-1278          	O-AV-198        	6.9490      	8.0000      	149.0000    	0.0000      	Open  	;
 P-1141          	J-1282          	J-1283          	1.4800      	8.0000      	149.0000    	0.0000      	Open  	;
 P-1142          	J-1283          	J-450           	521.9000    	8.0000      	149.0000    	0.0000      	Open  	;
 P-1143          	J-450           	O-AV-202        	66.8890     	8.0000      	149.0000    	0.0000      	Open  	;
 P-1144          	J-451           	J-1285          	6.4690      	4.0000      	147.0000    	0.0000      	Open  	;
 P-1145          	I-AV-19         	O-AV-20         	17.7000     	8.0000      	149.0000    	0.0000      	Open  	;
 P-1146          	J-452           	J-847           	2.5390      	8.0000      	149.0000    	0.0000      	Open  	;
 P-1147          	J-53            	J-1287          	4641.3100   	2.0000      	129.0000    	0.0000      	Open  	;
 P-1148          	I-AV-20         	O-AV-21         	53.7900     	8.0000      	149.0000    	0.0000      	Open  	;
 P-1149          	J-1288          	J-1289          	2098.4290   	12.0000     	142.0000    	0.0000      	Open  	;
 P-115           	J-197           	J-198           	1657.7290   	8.0000      	149.0000    	0.0000      	Open  	;
 P-1150          	J-1291          	O-AV-90         	1988.4000   	16.0000     	142.0000    	0.0000      	Open  	;
 P-1151          	J-1260          	I-AV-77         	2.8800      	16.0000     	142.0000    	0.0000      	Open  	;
 P-1152          	J-1293          	J-1294          	5.4290      	16.0000     	142.0000    	0.0000      	Open  	;
 P-1153          	J-1295          	J-1293          	1.0700      	16.0000     	142.0000    	0.0000      	Open  	;
 P-1154          	J-1291          	J-1295          	1.2690      	16.0000     	142.0000    	0.0000      	Open  	;
 P-1155          	I-AV-21         	J-13            	6.8490      	8.0000      	149.0000    	0.0000      	Open  	;
 P-1156          	J-54            	J-1090          	2294.2390   	8.0000      	149.0000    	0.0000      	Open  	;
 P-1157          	J-1297          	O-AV-84         	6450.0690   	4.0000      	147.0000    	0.0000      	Open  	;
 P-1158          	J-946           	O-AV-449        	3.4700      	8.0000      	149.0000    	0.0000      	Open  	;
 P-1159          	I-AV-23         	J-430           	1485.8900   	8.0000      	149.0000    	0.0000      	Open  	;
 P-116           	J-199           	J-200           	4649.1490   	8.0000      	149.0000    	0.0000      	Open  	;
 P-1160          	I-AV-25         	O-AV-10         	31.9590     	4.0000      	147.0000    	0.0000      	Open  	;
 P-1161          	J-1288          	O-AV-221        	711.2800    	12.0000     	142.0000    	0.0000      	Open  	;
 P-1162          	I-AV-26         	J-433           	2208.0900   	3.0000      	147.0000    	0.0000      	Open  	;
 P-1163          	J-1301          	O-AV-227        	1322.3290   	12.0000     	142.0000    	0.0000      	Open  	;
 P-1164          	J-756           	I-AV-228        	0.4090      	12.0000     	142.0000    	0.0000      	Open  	;
 P-1165          	I-AV-27         	J-1073          	1507.2290   	8.0000      	149.0000    	0.0000      	Open  	;
 P-1166          	I-AV-28         	J-889           	3.3090      	8.0000      	149.0000    	0.0000      	Open  	;
 P-1167          	J-161           	J-911           	510.8590    	3.0000      	147.0000    	0.0000      	Open  	;
 P-1168          	J-1301          	O-AV-231        	3.4200      	12.0000     	142.0000    	0.0000      	Open  	;
 P-1169          	J-846           	J-1306          	1792.7600   	8.0000      	149.0000    	0.0000      	Open  	;
 P-117           	J-41            	J-201           	3001.1890   	8.0000      	149.0000    	0.0000      	Open  	;
 P-1170          	J-1306          	O-AV-265        	6.4400      	8.0000      	149.0000    	0.0000      	Open  	;
 P-1171          	J-162           	J-672           	777.7290    	3.0000      	147.0000    	0.0000      	Open  	;
 P-1172          	J-165           	O-AV-28         	9.5690      	8.0000      	149.0000    	0.0000      	Open  	;
 P-1173          	J-937           	O-AV-377        	41.5600     	12.0000     	142.0000    	0.0000      	Open  	;
 P-1174          	J-1130          	I-AV-385        	0.7590      	3.0000      	147.0000    	0.0000      	Open  	;
 P-1175          	J-940           	O-AV-380        	2.5490      	3.0000      	147.0000    	0.0000      	Open  	;
 P-1176          	J-1309          	O-AV-381        	1.3300      	3.0000      	147.0000    	0.0000      	Open  	;
 P-1177          	J-307           	J-242           	374.4890    	8.0000      	149.0000    	0.0000      	Open  	;
 P-1178          	J-1311          	J-970           	533.3590    	6.0000      	149.0000    	0.0000      	Open  	;
 P-1179          	J-931           	J-1312          	6.1100      	12.0000     	142.0000    	0.0000      	Open  	;
 P-118           	J-203           	O-AV-148        	2265.8990   	8.0000      	149.0000    	0.0000      	Open  	;
 P-1180          	J-930           	J-1313          	3.2500      	12.0000     	142.0000    	0.0000      	Open  	;
 P-1181          	J-1032          	J-1314          	1.8700      	8.0000      	149.0000    	0.0000      	Open  	;
 P-1182          	J-260           	J-1029          	3.3390      	8.0000      	149.0000    	0.0000      	Open  	;
 P-1183          	J-1315          	J-1316          	4.0190      	8.0000      	149.0000    	0.0000      	Open  	;
 P-1184          	J-260           	O-AV-149        	3.1800      	8.0000      	149.0000    	0.0000      	Open  	;
 P-1185          	J-47            	J-890           	1582.6190   	8.0000      	149.0000    	0.0000      	Open  	;
 P-1186          	J-801           	J-1318          	3.4100      	12.0000     	142.0000    	0.0000      	Open  	;
 P-1187          	J-804           	J-1319          	1.1290      	3.0000      	137.0000    	0.0000      	Open  	;
 P-1188          	J-62            	J-1320          	5.8490      	12.0000     	142.0000    	0.0000      	Open  	;
 P-1189          	J-805           	J-1321          	1.0900      	12.0000     	142.0000    	0.0000      	Open  	;
 P-119           	J-204           	J-142           	1785.6190   	8.0000      	149.0000    	0.0000      	Open  	;
 P-1190          	J-391           	J-18            	3188.5100   	8.0000      	149.0000    	0.0000      	Open  	;
 P-1191          	J-18            	J-1322          	1.6790      	8.0000      	149.0000    	0.0000      	Open  	;
 P-1192          	J-792           	J-1323          	1.6590      	12.0000     	142.0000    	0.0000      	Open  	;
 P-1193          	J-696           	J-1324          	2.9000      	8.0000      	149.0000    	0.0000      	Open  	;
 P-1194          	J-1324          	J-434           	12.5390     	8.0000      	149.0000    	0.0000      	Open  	;
 P-1195          	J-1325          	O-AV-39         	2.3690      	8.0000      	149.0000    	0.0000      	Open  	;
 P-1196          	J-1326          	I-AV-40         	439.4290    	8.0000      	149.0000    	0.0000      	Open  	;
 P-1197          	J-1327          	J-1326          	4.5590      	8.0000      	149.0000    	0.0000      	Open  	;
 P-1198          	J-435           	J-1328          	1.6900      	8.0000      	149.0000    	0.0000      	Open  	;
 P-1199          	J-1091          	J-158           	441.5890    	8.0000      	149.0000    	0.0000      	Open  	;
 P-12            	J-22            	J-23            	4029.1790   	8.0000      	149.0000    	0.0000      	Open  	;
 P-120           	J-205           	J-206           	1019.0900   	8.0000      	149.0000    	0.0000      	Open  	;
 P-1200          	J-747           	J-1330          	4.5590      	12.0000     	150.0000    	0.0000      	Open  	;
 P-1201          	J-179           	J-1331          	5.5000      	12.0000     	142.0000    	0.0000      	Open  	;
 P-1202          	J-1256          	J-1332          	5.5500      	12.0000     	150.0000    	0.0000      	Open  	;
 P-1203          	J-1333          	J-1253          	0.7690      	3.0000      	147.0000    	0.0000      	Open  	;
 P-1204          	J-171           	J-1334          	3.8190      	12.0000     	150.0000    	0.0000      	Open  	;
 P-1205          	J-991           	J-1335          	3.3190      	12.0000     	150.0000    	0.0000      	Open  	;
 P-1206          	J-1316          	J-1027          	3.5390      	8.0000      	149.0000    	0.0000      	Open  	;
 P-1207          	J-1315          	J-1336          	3.4000      	8.0000      	149.0000    	0.0000      	Open  	;
 P-1208          	J-653           	J-1337          	3.4100      	3.0000      	147.0000    	0.0000      	Open  	;
 P-1209          	J-1297          	J-1338          	8.6300      	4.0000      	147.0000    	0.0000      	Open  	;
 P-121           	J-208           	O-AV-59         	1409.9790   	8.0000      	149.0000    	0.0000      	Open  	;
 P-1210          	J-1011          	J-1339          	3.5290      	3.0000      	147.0000    	0.0000      	Open  	;
 P-1211          	I-AV-34         	J-893           	331.8990    	3.0000      	147.0000    	0.0000      	Open  	;
 P-1212          	J-206           	J-43            	553.6790    	8.0000      	149.0000    	0.0000      	Open  	;
 P-1213          	J-1340          	J-305           	404.5490    	6.0000      	149.0000    	0.0000      	Open  	;
 P-1214          	J-1341          	J-1001          	0.1090      	16.0000     	142.0000    	0.0000      	Open  	;
 P-1215          	J-1257          	J-1341          	0.1190      	16.0000     	142.0000    	0.0000      	Open  	;
 P-1216          	I-AV-36         	J-892           	42.5800     	8.0000      	149.0000    	0.0000      	Open  	;
 P-1217          	I-AV-37         	J-895           	0.0900      	8.0000      	149.0000    	0.0000      	Open  	;
 P-1218          	J-742           	J-740           	9123.3890   	6.0000      	149.0000    	0.0000      	Open  	;
 P-1219          	J-353           	O-AV-438        	19.2900     	3.0000      	147.0000    	0.0000      	Open  	;
 P-122           	J-209           	J-210           	1058.5600   	8.0000      	149.0000    	0.0000      	Open  	;
 P-1220          	J-687           	J-688           	5.5300      	3.0000      	147.0000    	0.0000      	Open  	;
 P-1221          	J-553           	J-554           	390.2990    	8.0000      	149.0000    	0.0000      	Open  	;
 P-1222          	J-301           	J-294           	809.0990    	6.0000      	149.0000    	0.0000      	Open  	;
 P-1223          	J-264           	O-AV-428        	236.0000    	8.0000      	149.0000    	0.0000      	Open  	;
 P-1224          	J-1272          	J-1344          	66.9700     	3.0000      	137.0000    	0.0000      	Open  	;
 P-1225          	J-66            	J-1345          	2.2890      	12.0000     	142.0000    	0.0000      	Open  	;
 P-1226          	J-74            	J-1346          	2.0390      	12.0000     	142.0000    	0.0000      	Open  	;
 P-1227          	J-852           	J-1347          	2.4000      	12.0000     	142.0000    	0.0000      	Open  	;
 P-1228          	J-1288          	J-1348          	6.2300      	12.0000     	142.0000    	0.0000      	Open  	;
 P-1229          	J-194           	J-1349          	8.5290      	12.0000     	142.0000    	0.0000      	Open  	;
 P-123           	J-211           	I-AV-6          	3.8800      	8.0000      	149.0000    	0.0000      	Open  	;
 P-1230          	J-195           	J-1350          	3.7890      	12.0000     	142.0000    	0.0000      	Open  	;
 P-1231          	I-AV-38         	J-1567          	3771.1890   	4.0000      	147.0000    	0.0000      	Open  	;
 P-1232          	J-466           	J-140           	17.2900     	8.0000      	149.0000    	0.0000      	Open  	;
 P-1233          	J-155           	O-AV-328        	6.0700      	12.0000     	150.0000    	0.0000      	Open  	;
 P-1234          	J-737           	I-AV-443        	3.4200      	3.0000      	147.0000    	0.0000      	Open  	;
 P-1235          	J-1351          	J-1352          	2644.8990   	3.0000      	147.0000    	0.0000      	Open  	;
 P-1236          	J-1352          	J-1353          	2.5190      	3.0000      	147.0000    	0.0000      	Open  	;
 P-1237          	J-585           	J-1354          	2298.4290   	3.0000      	147.0000    	0.0000      	Open  	;
 P-1238          	J-1354          	J-1355          	206.0200    	3.0000      	147.0000    	0.0000      	Open  	;
 P-1239          	J-1355          	J-1356          	3.1500      	3.0000      	147.0000    	0.0000      	Open  	;
 P-124           	J-213           	J-214           	2313.8500   	8.0000      	149.0000    	0.0000      	Open  	;
 P-1240          	J-1131          	J-1357          	576.0990    	3.0000      	147.0000    	0.0000      	Open  	;
 P-1241          	J-1358          	J-1131          	2.6900      	3.0000      	147.0000    	0.0000      	Open  	;
 P-1242          	J-917           	J-184           	369.1790    	8.0000      	149.0000    	0.0000      	Open  	;
 P-1243          	I-AV-39         	J-1324          	0.1190      	8.0000      	149.0000    	0.0000      	Open  	;
 P-1244          	J-918           	J-920           	283.7600    	8.0000      	149.0000    	0.0000      	Open  	;
 P-1245          	J-1360          	O-AV-456        	328.0490    	8.0000      	149.0000    	0.0000      	Open  	;
 P-1246          	O-AV-40         	J-434           	0.9100      	8.0000      	149.0000    	0.0000      	Open  	;
 P-1247          	J-277           	J-1363          	79.4800     	6.0000      	149.0000    	0.0000      	Open  	;
 P-1248          	J-1076          	J-1362          	2.5290      	6.0000      	149.0000    	0.0000      	Open  	;
 P-1249          	J-1363          	J-1364          	3.7500      	6.0000      	149.0000    	0.0000      	Open  	;
 P-125           	J-216           	O-AV-158        	3165.2290   	8.0000      	149.0000    	0.0000      	Open  	;
 P-1250          	J-1360          	J-1365          	1.8500      	8.0000      	149.0000    	0.0000      	Open  	;
 P-1251          	J-1360          	J-1366          	46.4700     	8.0000      	149.0000    	0.0000      	Open  	;
 P-1252          	J-1149          	O-AV-433        	1452.4000   	6.0000      	149.0000    	0.0000      	Open  	;
 P-1253          	J-1149          	O-AV-432        	5.1100      	6.0000      	149.0000    	0.0000      	Open  	;
 P-1254          	J-230           	J-1367          	619.7190    	3.0000      	147.0000    	0.0000      	Open  	;
 P-1255          	I-AV-42         	J-435           	3.2990      	8.0000      	149.0000    	0.0000      	Open  	;
 P-1256          	J-698           	J-1368          	2.0390      	8.0000      	149.0000    	0.0000      	Open  	;
 P-1257          	J-1092          	J-1369          	2.0790      	3.0000      	147.0000    	0.0000      	Open  	;
 P-1258          	J-1097          	J-185           	508.7990    	8.0000      	149.0000    	0.0000      	Open  	;
 P-1259          	J-1371          	J-297           	15308.3090  	4.0000      	147.0000    	0.0000      	Open  	;
 P-126           	J-217           	J-218           	1707.0500   	8.0000      	149.0000    	0.0000      	Open  	;
 P-1260          	J-1372          	J-1371          	813.8590    	4.0000      	147.0000    	0.0000      	Open  	;
 P-1261          	J-1373          	J-1372          	1.0290      	4.0000      	147.0000    	0.0000      	Open  	;
 P-1262          	J-1372          	O-AV-430        	1833.8190   	4.0000      	147.0000    	0.0000      	Open  	;
 P-1263          	J-158           	J-698           	509.3900    	8.0000      	149.0000    	0.0000      	Open  	;
 P-1264          	O-AV-44         	J-1092          	552.6590    	3.0000      	147.0000    	0.0000      	Open  	;
 P-1265          	J-240           	O-AV-412        	466.7990    	6.0000      	149.0000    	0.0000      	Open  	;
 P-1266          	J-638           	J-1376          	2.1300      	3.0000      	147.0000    	0.0000      	Open  	;
 P-1267          	J-637           	O-AV-423        	2.3390      	3.0000      	147.0000    	0.0000      	Open  	;
 P-1268          	J-637           	O-AV-427        	2.2590      	3.0000      	147.0000    	0.0000      	Open  	;
 P-1269          	J-266           	J-1377          	1.5490      	3.0000      	147.0000    	0.0000      	Open  	;
 P-127           	J-219           	J-220           	810.0200    	8.0000      	149.0000    	0.0000      	Open  	;
 P-1270          	J-267           	J-1378          	1.7000      	3.0000      	147.0000    	0.0000      	Open  	;
 P-1271          	J-1379          	O-AV-233        	1.9600      	12.0000     	142.0000    	0.0000      	Open  	;
 P-1272          	J-1380          	J-725           	47.9300     	12.0000     	142.0000    	0.0000      	Open  	;
 P-1273          	J-1381          	J-1301          	2.1900      	12.0000     	142.0000    	0.0000      	Open  	;
 P-1274          	J-1382          	J-1037          	0.8700      	12.0000     	142.0000    	0.0000      	Open  	;
 P-1275          	J-1037          	O-AV-370        	4.3600      	12.0000     	142.0000    	0.0000      	Open  	;
 P-1276          	J-1130          	J-1383          	4.4290      	3.0000      	147.0000    	0.0000      	Open  	;
 P-1277          	J-1357          	J-1384          	4.7190      	3.0000      	147.0000    	0.0000      	Open  	;
 P-1278          	J-33            	J-1095          	1518.0300   	8.0000      	149.0000    	0.0000      	Open  	;
 P-1279          	J-1385          	J-1386          	1053.0300   	3.0000      	147.0000    	0.0000      	Open  	;
 P-128           	J-43            	J-221           	742.5800    	8.0000      	149.0000    	0.0000      	Open  	;
 P-1280          	J-1386          	J-1387          	4.5990      	3.0000      	147.0000    	0.0000      	Open  	;
 P-1281          	J-1129          	O-AV-384        	60.7590     	3.0000      	147.0000    	0.0000      	Open  	;
 P-1282          	J-1385          	J-1388          	352.5290    	3.0000      	147.0000    	0.0000      	Open  	;
 P-1283          	J-1388          	J-1389          	2.5290      	3.0000      	147.0000    	0.0000      	Open  	;
 P-1284          	I-AV-47         	J-410           	406.0290    	8.0000      	149.0000    	0.0000      	Open  	;
 P-1285          	I-AV-48         	J-1097          	3.5690      	8.0000      	149.0000    	0.0000      	Open  	;
 P-1286          	O-AV-49         	J-382           	1319.7500   	2.0000      	140.0000    	0.0000      	Open  	;
 P-1287          	J-1390          	O-AV-282        	176.1690    	12.0000     	142.0000    	0.0000      	Open  	;
 P-1288          	O-AV-50         	J-370           	196.6690    	3.0000      	147.0000    	0.0000      	Open  	;
 P-1289          	J-1395          	J-1172          	2.4100      	12.0000     	142.0000    	0.0000      	Open  	;
 P-129           	J-222           	I-AV-292        	1006.4890   	8.0000      	149.0000    	0.0000      	Open  	;
 P-1290          	J-1396          	I-AV-54         	1525.6890   	6.0000      	149.0000    	0.0000      	Open  	;
 P-1291          	J-48            	J-24            	1504.9300   	12.0000     	150.0000    	0.0000      	Open  	;
 P-1292          	I-AV-51         	J-986           	5970.3190   	3.0000      	147.0000    	0.0000      	Open  	;
 P-1294          	J-1400          	J-1088          	1.2300      	6.0000      	149.0000    	0.0000      	Open  	;
 P-1295          	J-1401          	J-417           	2.0090      	8.0000      	149.0000    	0.0000      	Open  	;
 P-1296          	J-1402          	J-416           	3.6190      	8.0000      	149.0000    	0.0000      	Open  	;
 P-1297          	J-1403          	J-744           	7.7390      	8.0000      	149.0000    	0.0000      	Open  	;
 P-1298          	J-1090          	J-1404          	2.2400      	8.0000      	149.0000    	0.0000      	Open  	;
 P-1299          	J-685           	J-1405          	4.4490      	6.0000      	149.0000    	0.0000      	Open  	;
 P-13            	J-5             	J-284           	8056.8700   	8.0000      	149.0000    	0.0000      	Open  	;
 P-130           	J-225           	O-AV-163        	6625.8390   	8.0000      	149.0000    	0.0000      	Open  	;
 P-1300          	J-1135          	J-1406          	2.3900      	3.0000      	147.0000    	0.0000      	Open  	;
 P-1301          	J-712           	O-AV-466        	1482.3800   	6.0000      	149.0000    	0.0000      	Open  	;
 P-1302          	J-1115          	J-1407          	915.3800    	6.0000      	149.0000    	0.0000      	Open  	;
 P-1303          	J-1117          	J-1115          	1238.5600   	6.0000      	149.0000    	0.0000      	Open  	;
 P-1304          	J-1407          	J-1408          	511.8690    	6.0000      	149.0000    	0.0000      	Open  	;
 P-1305          	J-1407          	J-1409          	2.5590      	6.0000      	149.0000    	0.0000      	Open  	;
 P-1306          	J-1408          	J-1410          	2.7790      	6.0000      	149.0000    	0.0000      	Open  	;
 P-1307          	J-1407          	J-1411          	430.5890    	6.0000      	149.0000    	0.0000      	Open  	;
 P-1308          	J-1411          	J-1412          	1.6290      	6.0000      	149.0000    	0.0000      	Open  	;
 P-1309          	J-1093          	J-1413          	2.2400      	8.0000      	149.0000    	0.0000      	Open  	;
 P-131           	J-226           	J-227           	850.2800    	8.0000      	149.0000    	0.0000      	Open  	;
 P-1310          	J-1095          	J-1414          	1.3700      	8.0000      	149.0000    	0.0000      	Open  	;
 P-1311          	O-AV-52         	J-1156          	10614.7300  	6.0000      	149.0000    	0.0000      	Open  	;
 P-1312          	J-672           	J-1415          	0.1400      	3.0000      	147.0000    	0.0000      	Open  	;
 P-1313          	J-1416          	J-673           	4.3200      	8.0000      	149.0000    	0.0000      	Open  	;
 P-1314          	J-890           	J-1417          	1.0090      	8.0000      	149.0000    	0.0000      	Open  	;
 P-1315          	J-893           	J-1418          	1.9090      	3.0000      	147.0000    	0.0000      	Open  	;
 P-1316          	J-894           	J-436           	18.5300     	8.0000      	149.0000    	0.0000      	Open  	;
 P-1317          	J-1419          	J-894           	17.5490     	8.0000      	149.0000    	0.0000      	Open  	;
 P-1318          	J-252           	J-1420          	3.2100      	8.0000      	149.0000    	0.0000      	Open  	;
 P-1319          	J-22            	J-1421          	7.3490      	8.0000      	149.0000    	0.0000      	Open  	;
 P-132           	J-228           	J-229           	554.2800    	8.0000      	149.0000    	0.0000      	Open  	;
 P-1320          	J-200           	J-1422          	6.0300      	8.0000      	149.0000    	0.0000      	Open  	;
 P-1321          	J-1423          	J-1202          	2.3800      	3.0000      	147.0000    	0.0000      	Open  	;
 P-1322          	J-1424          	J-1201          	1.7690      	4.0000      	147.0000    	0.0000      	Open  	;
 P-1323          	J-1425          	J-1204          	2.2100      	4.0000      	147.0000    	0.0000      	Open  	;
 P-1324          	J-964           	J-1426          	4.9600      	8.0000      	149.0000    	0.0000      	Open  	;
 P-1325          	J-476           	J-1427          	1.2990      	8.0000      	149.0000    	0.0000      	Open  	;
 P-1326          	J-1428          	J-391           	201.3600    	8.0000      	149.0000    	0.0000      	Open  	;
 P-1327          	J-1429          	J-1428          	8.1300      	8.0000      	149.0000    	0.0000      	Open  	;
 P-1328          	J-251           	J-1428          	3026.5400   	8.0000      	149.0000    	0.0000      	Open  	;
 P-1329          	J-1430          	J-251           	24.6100     	8.0000      	149.0000    	0.0000      	Open  	;
 P-133           	J-230           	O-AV-61         	572.8490    	8.0000      	149.0000    	0.0000      	Open  	;
 P-1330          	J-113           	J-1431          	6.5190      	3.0000      	147.0000    	0.0000      	Open  	;
 P-1331          	J-682           	J-1432          	5.3400      	3.0000      	147.0000    	0.0000      	Open  	;
 P-1332          	J-1433          	J-429           	8.8900      	8.0000      	149.0000    	0.0000      	Open  	;
 P-1333          	J-1434          	J-1435          	2.1190      	8.0000      	149.0000    	0.0000      	Open  	;
 P-1334          	J-1436          	I-AV-67         	2.9500      	8.0000      	149.0000    	0.0000      	Open  	;
 P-1335          	J-667           	J-1437          	10.6890     	8.0000      	149.0000    	0.0000      	Open  	;
 P-1336          	J-1438          	J-1119          	3.1300      	8.0000      	149.0000    	0.0000      	Open  	;
 P-1337          	J-1440          	O-AV-238        	21.9400     	3.0000      	137.0000    	0.0000      	Open  	;
 P-1338          	J-1070          	J-779           	1037.6890   	8.0000      	149.0000    	0.0000      	Open  	;
 P-1339          	J-1441          	J-1070          	8.3190      	8.0000      	149.0000    	0.0000      	Open  	;
 P-134           	J-232           	J-233           	1298.8290   	8.0000      	149.0000    	0.0000      	Open  	;
 P-1340          	J-1442          	J-216           	2.9600      	8.0000      	149.0000    	0.0000      	Open  	;
 P-1341          	J-1443          	J-339           	3.2890      	8.0000      	149.0000    	0.0000      	Open  	;
 P-1342          	J-1444          	J-886           	4.0990      	8.0000      	149.0000    	0.0000      	Open  	;
 P-1343          	J-1445          	O-AV-145        	5.1700      	8.0000      	149.0000    	0.0000      	Open  	;
 P-1344          	J-278           	J-1446          	1.9900      	6.0000      	149.0000    	0.0000      	Open  	;
 P-1345          	J-1447          	I-AV-143        	3.2200      	8.0000      	149.0000    	0.0000      	Open  	;
 P-1346          	J-1448          	J-1227          	4.1190      	12.0000     	150.0000    	0.0000      	Open  	;
 P-1347          	J-58            	J-1449          	3.2300      	12.0000     	150.0000    	0.0000      	Open  	;
 P-1348          	O-AV-54         	J-6             	1686.7900   	6.0000      	149.0000    	0.0000      	Open  	;
 P-1349          	J-389           	J-1450          	2472.8100   	2.0000      	140.0000    	0.0000      	Open  	;
 P-135           	J-234           	J-235           	1092.1090   	8.0000      	149.0000    	0.0000      	Open  	;
 P-1350          	I-AV-55         	J-366           	1775.4390   	8.0000      	149.0000    	0.0000      	Open  	;
 P-1351          	J-1451          	J-1452          	2.9200      	3.0000      	147.0000    	0.0000      	Open  	;
 P-1352          	J-1453          	J-925           	0.3890      	2.0000      	140.0000    	0.0000      	Open  	;
 P-1353          	J-423           	J-1454          	2.8800      	8.0000      	149.0000    	0.0000      	Open  	;
 P-1354          	J-928           	J-1455          	5.6500      	8.0000      	149.0000    	0.0000      	Open  	;
 P-1355          	J-1456          	J-67            	9.2700      	2.0000      	129.0000    	0.0000      	Open  	;
 P-1356          	J-530           	J-1457          	6.0000      	4.0000      	147.0000    	0.0000      	Open  	;
 P-1357          	J-1458          	J-532           	4.3090      	4.0000      	147.0000    	0.0000      	Open  	;
 P-1358          	J-77            	O-AV-217        	2.4100      	4.0000      	147.0000    	0.0000      	Open  	;
 P-1359          	J-536           	J-1459          	3.4900      	4.0000      	147.0000    	0.0000      	Open  	;
 P-136           	J-236           	J-237           	2930.2500   	8.0000      	149.0000    	0.0000      	Open  	;
 P-1360          	J-78            	J-1460          	1.9700      	4.0000      	147.0000    	0.0000      	Open  	;
 P-1361          	J-1461          	J-1462          	2.0590      	3.0000      	137.0000    	0.0000      	Open  	;
 P-1362          	J-1169          	J-1463          	1.4700      	3.0000      	137.0000    	0.0000      	Open  	;
 P-1363          	J-1170          	J-1699          	4319.1290   	3.0000      	137.0000    	0.0000      	Open  	;
 P-1364          	J-771           	J-1465          	1.8400      	3.0000      	137.0000    	0.0000      	Open  	;
 P-1365          	J-1051          	J-1466          	3.5690      	12.0000     	142.0000    	0.0000      	Open  	;
 P-1366          	J-1394          	J-1467          	2.5290      	12.0000     	142.0000    	0.0000      	Open  	;
 P-1367          	J-1174          	J-1468          	1.3500      	12.0000     	142.0000    	0.0000      	Open  	;
 P-1368          	J-1469          	J-374           	1.5490      	2.0000      	140.0000    	0.0000      	Open  	;
 P-1369          	J-380           	J-1470          	1.8890      	2.0000      	140.0000    	0.0000      	Open  	;
 P-137           	J-239           	I-AV-98         	97.1800     	8.0000      	149.0000    	0.0000      	Open  	;
 P-1370          	J-1471          	J-486           	11.4490     	8.0000      	149.0000    	0.0000      	Open  	;
 P-1371          	J-1472          	J-661           	1.0090      	3.0000      	147.0000    	0.0000      	Open  	;
 P-1372          	J-254           	J-1473          	4.5300      	8.0000      	149.0000    	0.0000      	Open  	;
 P-1373          	J-1474          	J-255           	3.8090      	8.0000      	149.0000    	0.0000      	Open  	;
 P-1374          	J-665           	J-1475          	3.3290      	3.0000      	147.0000    	0.0000      	Open  	;
 P-1375          	J-429           	J-1434          	1532.6190   	8.0000      	149.0000    	0.0000      	Open  	;
 P-1376          	J-1476          	J-525           	4.1390      	8.0000      	149.0000    	0.0000      	Open  	;
 P-1377          	J-494           	J-1477          	1.7990      	3.0000      	137.0000    	0.0000      	Open  	;
 P-1378          	J-309           	O-AV-467        	210.7290    	6.0000      	149.0000    	0.0000      	Open  	;
 P-1379          	O-AV-56         	J-367           	2002.7600   	3.0000      	147.0000    	0.0000      	Open  	;
 P-138           	J-240           	J-241           	2734.9690   	8.0000      	149.0000    	0.0000      	Open  	;
 P-1380          	J-1192          	J-1             	1.5700      	8.0000      	149.0000    	0.0000      	Open  	;
 P-1381          	J-1480          	J-1189          	3.9600      	3.0000      	147.0000    	0.0000      	Open  	;
 P-1382          	J-156           	J-1481          	2.0090      	8.0000      	149.0000    	0.0000      	Open  	;
 P-1383          	J-512           	J-1482          	5.0700      	16.0000     	142.0000    	0.0000      	Open  	;
 P-1384          	J-994           	J-1483          	3.3090      	3.0000      	137.0000    	0.0000      	Open  	;
 P-1385          	J-1484          	O-AV-279        	7.4890      	3.0000      	137.0000    	0.0000      	Open  	;
 P-1386          	J-1485          	J-999           	1.3790      	3.0000      	137.0000    	0.0000      	Open  	;
 P-1387          	I-AV-58         	J-366           	9.0790      	8.0000      	149.0000    	0.0000      	Open  	;
 P-1388          	J-1245          	J-1487          	2.3590      	4.0000      	147.0000    	0.0000      	Open  	;
 P-1389          	J-325           	J-340           	5373.4300   	4.0000      	147.0000    	0.0000      	Open  	;
 P-139           	J-242           	J-1311          	55.2590     	8.0000      	149.0000    	0.0000      	Open  	;
 P-1390          	J-96            	J-1287          	5339.0690   	4.0000      	147.0000    	0.0000      	Open  	;
 P-1391          	J-1026          	J-1490          	2.5690      	3.0000      	137.0000    	0.0000      	Open  	;
 P-1392          	J-1024          	J-1491          	4.2300      	3.0000      	137.0000    	0.0000      	Open  	;
 P-1393          	J-959           	J-1492          	1.5090      	8.0000      	149.0000    	0.0000      	Open  	;
 P-1394          	J-1493          	J-1494          	2.2890      	3.0000      	137.0000    	0.0000      	Open  	;
 P-1395          	J-1495          	J-588           	7.5300      	12.0000     	142.0000    	0.0000      	Open  	;
 P-1396          	J-590           	J-591           	271.0790    	3.0000      	137.0000    	0.0000      	Open  	;
 P-1397          	J-1496          	J-1497          	2.5390      	3.0000      	137.0000    	0.0000      	Open  	;
 P-1398          	J-592           	J-1498          	6.5790      	3.0000      	137.0000    	0.0000      	Open  	;
 P-1399          	J-955           	J-957           	493.7300    	12.0000     	142.0000    	0.0000      	Open  	;
 P-14            	J-27            	O-AV-331        	1759.0690   	8.0000      	149.0000    	0.0000      	Open  	;
 P-140           	J-244           	O-AV-74         	4312.2700   	8.0000      	149.0000    	0.0000      	Open  	;
 P-1400          	J-1499          	O-AV-275        	854.7600    	3.0000      	137.0000    	0.0000      	Open  	;
 P-1401          	J-1501          	J-27            	2.6190      	8.0000      	149.0000    	0.0000      	Open  	;
 P-1402          	J-1502          	J-1058          	2.1190      	8.0000      	149.0000    	0.0000      	Open  	;
 P-1403          	J-472           	J-1503          	2.2000      	8.0000      	149.0000    	0.0000      	Open  	;
 P-1404          	J-1504          	J-473           	22.0790     	8.0000      	149.0000    	0.0000      	Open  	;
 P-1405          	J-474           	J-1505          	2.6400      	8.0000      	149.0000    	0.0000      	Open  	;
 P-1406          	J-1506          	J-980           	0.8990      	6.0000      	149.0000    	0.0000      	Open  	;
 P-1407          	J-1507          	J-1040          	4.4800      	6.0000      	149.0000    	0.0000      	Open  	;
 P-1408          	J-1508          	J-400           	2.5790      	6.0000      	149.0000    	0.0000      	Open  	;
 P-1409          	J-1044          	J-1509          	2.3900      	6.0000      	149.0000    	0.0000      	Open  	;
 P-141           	J-246           	J-146           	867.7600    	8.0000      	149.0000    	0.0000      	Open  	;
 P-1410          	J-1510          	J-1511          	249.8390    	3.0000      	147.0000    	0.0000      	Open  	;
 P-1411          	J-981           	J-1512          	3.2890      	6.0000      	149.0000    	0.0000      	Open  	;
 P-1412          	J-981           	J-1510          	32.8600     	6.0000      	149.0000    	0.0000      	Open  	;
 P-1413          	J-1511          	J-1513          	2.4000      	3.0000      	147.0000    	0.0000      	Open  	;
 P-1414          	J-704           	O-AV-366        	104.2300    	6.0000      	142.0000    	0.0000      	Open  	;
 P-1415          	J-1515          	J-703           	1.6490      	12.0000     	142.0000    	0.0000      	Open  	;
 P-1416          	J-702           	J-1516          	2.7790      	3.0000      	137.0000    	0.0000      	Open  	;
 P-1417          	J-1517          	J-596           	1.5590      	12.0000     	142.0000    	0.0000      	Open  	;
 P-1418          	J-1518          	J-250           	11.5500     	3.0000      	137.0000    	0.0000      	Open  	;
 P-1419          	J-1519          	J-1520          	2.6900      	3.0000      	137.0000    	0.0000      	Open  	;
 P-142           	J-247           	J-41            	763.9090    	8.0000      	149.0000    	0.0000      	Open  	;
 P-1420          	J-1440          	O-AV-250        	1127.6400   	12.0000     	142.0000    	0.0000      	Open  	;
 P-1421          	J-740           	J-1521          	2.3290      	6.0000      	149.0000    	0.0000      	Open  	;
 P-1422          	J-1522          	J-1145          	2.7590      	6.0000      	149.0000    	0.0000      	Open  	;
 P-1423          	J-869           	J-332           	2235.6200   	4.0000      	147.0000    	0.0000      	Open  	;
 P-1424          	J-869           	J-1523          	3.1500      	4.0000      	147.0000    	0.0000      	Open  	;
 P-1425          	J-1524          	J-332           	1.6900      	4.0000      	147.0000    	0.0000      	Open  	;
 P-1426          	J-620           	J-1525          	3.9200      	4.0000      	147.0000    	0.0000      	Open  	;
 P-1427          	J-76            	O-AV-109        	332.5000    	4.0000      	147.0000    	0.0000      	Open  	;
 P-1428          	J-76            	J-1526          	1.2690      	4.0000      	147.0000    	0.0000      	Open  	;
 P-1429          	J-1005          	J-317           	235.0390    	6.0000      	149.0000    	0.0000      	Open  	;
 P-143           	J-248           	J-10            	1971.4300   	8.0000      	149.0000    	0.0000      	Open  	;
 P-1430          	J-983           	J-1527          	201.6900    	6.0000      	149.0000    	0.0000      	Open  	;
 P-1431          	J-1527          	J-1528          	6.8490      	6.0000      	149.0000    	0.0000      	Open  	;
 P-1432          	J-317           	J-1529          	508.8800    	6.0000      	149.0000    	0.0000      	Open  	;
 P-1433          	J-312           	J-138           	524.2800    	6.0000      	149.0000    	0.0000      	Open  	;
 P-1434          	J-312           	J-1530          	2.0690      	6.0000      	149.0000    	0.0000      	Open  	;
 P-1435          	J-30            	O-AV-104        	0.4000      	8.0000      	149.0000    	0.0000      	Open  	;
 P-1436          	J-31            	J-201           	50.2790     	8.0000      	149.0000    	0.0000      	Open  	;
 P-1437          	J-31            	J-1532          	1.6000      	8.0000      	149.0000    	0.0000      	Open  	;
 P-1438          	J-1006          	O-AV-103        	1.5000      	4.0000      	147.0000    	0.0000      	Open  	;
 P-1439          	J-1533          	O-AV-226        	511.2690    	3.0000      	137.0000    	0.0000      	Open  	;
 P-1440          	J-622           	J-1440          	489.8590    	12.0000     	142.0000    	0.0000      	Open  	;
 P-1441          	J-1535          	J-1533          	2.7890      	3.0000      	137.0000    	0.0000      	Open  	;
 P-1442          	I-AV-59         	J-364           	287.7000    	8.0000      	149.0000    	0.0000      	Open  	;
 P-1443          	J-953           	J-1536          	3.0190      	12.0000     	142.0000    	0.0000      	Open  	;
 P-1444          	J-625           	J-1537          	0.4300      	12.0000     	142.0000    	0.0000      	Open  	;
 P-1445          	J-1538          	J-628           	1729.1990   	12.0000     	142.0000    	0.0000      	Open  	;
 P-1446          	J-1538          	O-AV-176        	5.7100      	12.0000     	142.0000    	0.0000      	Open  	;
 P-1447          	J-1538          	J-1539          	1.8790      	12.0000     	142.0000    	0.0000      	Open  	;
 P-1448          	J-1540          	J-628           	2.8090      	12.0000     	142.0000    	0.0000      	Open  	;
 P-1449          	J-629           	J-1541          	1.1900      	12.0000     	142.0000    	0.0000      	Open  	;
 P-145           	J-225           	J-251           	4100.1200   	8.0000      	149.0000    	0.0000      	Open  	;
 P-1450          	J-1542          	J-631           	852.4400    	12.0000     	142.0000    	0.0000      	Open  	;
 P-1451          	J-630           	I-AV-164        	30.7290     	12.0000     	142.0000    	0.0000      	Open  	;
 P-1452          	J-98            	J-290           	65.7300     	6.0000      	149.0000    	0.0000      	Open  	;
 P-1453          	J-290           	J-1543          	8.1800      	6.0000      	149.0000    	0.0000      	Open  	;
 P-1454          	J-291           	J-867           	1449.1190   	6.0000      	149.0000    	0.0000      	Open  	;
 P-1455          	J-291           	J-1544          	3.2300      	6.0000      	149.0000    	0.0000      	Open  	;
 P-1456          	J-867           	J-1545          	38.2700     	6.0000      	149.0000    	0.0000      	Open  	;
 P-1457          	J-328           	J-1546          	3.5890      	4.0000      	147.0000    	0.0000      	Open  	;
 P-1458          	J-868           	J-1547          	2.4200      	4.0000      	147.0000    	0.0000      	Open  	;
 P-1459          	J-272           	J-1548          	2520.1690   	6.0000      	149.0000    	0.0000      	Open  	;
 P-146           	J-22            	J-252           	4025.5800   	8.0000      	149.0000    	0.0000      	Open  	;
 P-1460          	J-272           	J-1549          	5.7500      	6.0000      	149.0000    	0.0000      	Open  	;
 P-1461          	J-1548          	J-293           	1875.4200   	6.0000      	149.0000    	0.0000      	Open  	;
 P-1462          	J-1548          	J-1550          	352.7390    	6.0000      	149.0000    	0.0000      	Open  	;
 P-1463          	J-1551          	J-1552          	3.2300      	6.0000      	149.0000    	0.0000      	Open  	;
 P-1464          	J-293           	I-AV-312        	0.2190      	6.0000      	149.0000    	0.0000      	Open  	;
 P-1465          	J-1553          	J-1102          	3.2100      	3.0000      	137.0000    	0.0000      	Open  	;
 P-1466          	J-1101          	J-1554          	5.1100      	3.0000      	137.0000    	0.0000      	Open  	;
 P-1467          	J-1020          	J-1555          	3.4500      	12.0000     	142.0000    	0.0000      	Open  	;
 P-1468          	J-1105          	J-1556          	1.7690      	12.0000     	142.0000    	0.0000      	Open  	;
 P-1469          	J-589           	J-249           	169.9400    	3.0000      	137.0000    	0.0000      	Open  	;
 P-147           	J-146           	J-253           	1648.4100   	8.0000      	149.0000    	0.0000      	Open  	;
 P-1470          	J-594           	J-1557          	10.1490     	3.0000      	137.0000    	0.0000      	Open  	;
 P-1471          	O-AV-60         	J-365           	2929.0300   	3.0000      	147.0000    	0.0000      	Open  	;
 P-1472          	J-257           	J-498           	134.2400    	8.0000      	149.0000    	0.0000      	Open  	;
 P-1473          	J-1559          	J-257           	3.0190      	8.0000      	149.0000    	0.0000      	Open  	;
 P-1474          	J-1560          	I-AV-128        	1.7990      	4.0000      	147.0000    	0.0000      	Open  	;
 P-1475          	J-606           	J-609           	362.3290    	4.0000      	147.0000    	0.0000      	Open  	;
 P-1476          	J-1267          	J-1561          	5.1300      	6.0000      	149.0000    	0.0000      	Open  	;
 P-1477          	J-732           	J-1562          	1.2400      	6.0000      	149.0000    	0.0000      	Open  	;
 P-1478          	J-734           	J-1563          	2.4500      	2.0000      	140.0000    	0.0000      	Open  	;
 P-1479          	J-1178          	J-470           	21.2800     	16.0000     	142.0000    	0.0000      	Open  	;
 P-148           	J-254           	J-255           	2008.1090   	8.0000      	149.0000    	0.0000      	Open  	;
 P-1480          	J-1230          	J-1564          	6.5100      	16.0000     	142.0000    	0.0000      	Open  	;
 P-1481          	J-164           	J-1565          	3.0000      	16.0000     	142.0000    	0.0000      	Open  	;
 P-1482          	J-1238          	O-AV-222        	1.2300      	12.0000     	142.0000    	0.0000      	Open  	;
 P-1483          	J-1239          	J-1240          	2.1700      	12.0000     	142.0000    	0.0000      	Open  	;
 P-1484          	I-AV-61         	J-461           	909.4690    	8.0000      	149.0000    	0.0000      	Open  	;
 P-1485          	J-1237          	J-169           	10.3100     	12.0000     	142.0000    	0.0000      	Open  	;
 P-1486          	J-1566          	J-510           	2.3590      	16.0000     	142.0000    	0.0000      	Open  	;
 P-1487          	I-AV-62         	O-AV-189        	32.3490     	6.0000      	149.0000    	0.0000      	Open  	;
 P-1488          	J-1567          	J-1568          	3.5490      	4.0000      	147.0000    	0.0000      	Open  	;
 P-1489          	J-749           	J-1569          	3.4700      	12.0000     	150.0000    	0.0000      	Open  	;
 P-149           	J-256           	J-257           	1510.3900   	8.0000      	149.0000    	0.0000      	Open  	;
 P-1490          	J-936           	J-1570          	2.0000      	12.0000     	142.0000    	0.0000      	Open  	;
 P-1491          	I-AV-63         	J-103           	1714.1600   	12.0000     	150.0000    	0.0000      	Open  	;
 P-1492          	J-1571          	J-1128          	1.0190      	3.0000      	147.0000    	0.0000      	Open  	;
 P-1493          	J-1033          	J-1572          	3.4400      	12.0000     	142.0000    	0.0000      	Open  	;
 P-1494          	J-1573          	J-939           	0.7500      	12.0000     	142.0000    	0.0000      	Open  	;
 P-1495          	J-1037          	O-AV-371        	1591.7600   	12.0000     	142.0000    	0.0000      	Open  	;
 P-1496          	J-91            	J-458           	2095.5400   	4.0000      	147.0000    	0.0000      	Open  	;
 P-1497          	J-1243          	J-1244          	72.4590     	4.0000      	147.0000    	0.0000      	Open  	;
 P-1498          	J-1574          	J-1575          	3.8390      	4.0000      	147.0000    	0.0000      	Open  	;
 P-1499          	J-1576          	J-1293          	1.5390      	16.0000     	142.0000    	0.0000      	Open  	;
 P-15            	O-Hollybush     	J-323           	14.4390     	4.0000      	147.0000    	0.0000      	Open  	;
 P-150           	J-10            	I-AV-131        	1.0490      	8.0000      	149.0000    	0.0000      	Open  	;
 P-1500          	J-398           	J-1577          	1.9400      	12.0000     	142.0000    	0.0000      	Open  	;
 P-1501          	J-1578          	J-397           	0.9200      	12.0000     	142.0000    	0.0000      	Open  	;
 P-1502          	J-1261          	J-1579          	0.5790      	12.0000     	142.0000    	0.0000      	Open  	;
 P-1503          	J-1261          	O-AV-102        	79.6690     	12.0000     	142.0000    	0.0000      	Open  	;
 P-1504          	J-1580          	J-105           	6.2800      	4.0000      	147.0000    	0.0000      	Open  	;
 P-1505          	J-105           	J-1581          	7.6790      	4.0000      	147.0000    	0.0000      	Open  	;
 P-1506          	J-106           	J-1582          	3.0190      	4.0000      	147.0000    	0.0000      	Open  	;
 P-1507          	J-613           	O-AV-346        	163.0090    	6.0000      	149.0000    	0.0000      	Open  	;
 P-1508          	J-1584          	O-AV-357        	585.5990    	6.0000      	149.0000    	0.0000      	Open  	;
 P-1509          	J-613           	O-AV-323        	153.3690    	6.0000      	149.0000    	0.0000      	Open  	;
 P-151           	J-260           	O-AV-134        	2036.8390   	8.0000      	149.0000    	0.0000      	Open  	;
 P-1510          	I-AV-64         	O-AV-66         	9.4700      	8.0000      	149.0000    	0.0000      	Open  	;
 P-1511          	J-1587          	J-1588          	28.2900     	6.0000      	149.0000    	0.0000      	Open  	;
 P-1512          	I-AV-66         	J-664           	107.9000    	8.0000      	149.0000    	0.0000      	Open  	;
 P-1513          	O-AV-67         	J-1192          	0.1700      	8.0000      	149.0000    	0.0000      	Open  	;
 P-1514          	J-615           	J-1590          	7.0000      	6.0000      	149.0000    	0.0000      	Open  	;
 P-1515          	J-1586          	J-1591          	1.4600      	6.0000      	149.0000    	0.0000      	Open  	;
 P-1516          	J-1592          	J-286           	1.6200      	6.0000      	149.0000    	0.0000      	Open  	;
 P-1517          	J-1068          	O-AV-11         	65.6290     	6.0000      	149.0000    	0.0000      	Open  	;
 P-1518          	J-1542          	J-1593          	3.9000      	12.0000     	142.0000    	0.0000      	Open  	;
 P-1519          	J-631           	J-1594          	4.8600      	12.0000     	142.0000    	0.0000      	Open  	;
 P-152           	J-261           	J-262           	468.2090    	8.0000      	149.0000    	0.0000      	Open  	;
 P-1520          	J-1595          	O-AV-140        	8.9600      	12.0000     	142.0000    	0.0000      	Open  	;
 P-1521          	J-1595          	O-AV-152        	8.5790      	12.0000     	142.0000    	0.0000      	Open  	;
 P-1522          	J-633           	J-1597          	3.1600      	12.0000     	142.0000    	0.0000      	Open  	;
 P-1523          	I-AV-69         	J-1192          	283.3290    	8.0000      	149.0000    	0.0000      	Open  	;
 P-1524          	J-951           	J-1598          	1.3400      	12.0000     	142.0000    	0.0000      	Open  	;
 P-1525          	J-1599          	J-1068          	61.6100     	6.0000      	149.0000    	0.0000      	Open  	;
 P-1526          	J-1600          	J-425           	60.9090     	6.0000      	149.0000    	0.0000      	Open  	;
 P-1527          	J-1601          	J-978           	1.7790      	3.0000      	147.0000    	0.0000      	Open  	;
 P-1528          	J-1340          	O-AV-480        	2126.6690   	6.0000      	149.0000    	0.0000      	Open  	;
 P-1529          	J-1602          	J-273           	24.7090     	6.0000      	149.0000    	0.0000      	Open  	;
 P-153           	J-258           	O-AV-120        	4.8090      	8.0000      	149.0000    	0.0000      	Open  	;
 P-1530          	J-977           	O-AV-5          	6.5500      	6.0000      	149.0000    	0.0000      	Open  	;
 P-1531          	I-AV-70         	J-426           	18.3090     	8.0000      	149.0000    	0.0000      	Open  	;
 P-1532          	J-1604          	J-819           	20.5690     	3.0000      	137.0000    	0.0000      	Open  	;
 P-1533          	J-820           	J-1605          	1.9190      	3.0000      	137.0000    	0.0000      	Open  	;
 P-1534          	J-1606          	J-1607          	446.3290    	3.0000      	137.0000    	0.0000      	Open  	;
 P-1535          	J-1606          	J-1604          	10.7790     	3.0000      	137.0000    	0.0000      	Open  	;
 P-1536          	J-1607          	J-1608          	1.9900      	3.0000      	137.0000    	0.0000      	Open  	;
 P-1537          	J-827           	J-1609          	4.5990      	12.0000     	142.0000    	0.0000      	Open  	;
 P-1538          	J-826           	J-1610          	0.1590      	12.0000     	142.0000    	0.0000      	Open  	;
 P-1539          	J-1611          	J-518           	2.1600      	8.0000      	149.0000    	0.0000      	Open  	;
 P-154           	J-264           	J-265           	3089.1690   	8.0000      	149.0000    	0.0000      	Open  	;
 P-1540          	J-1612          	J-1122          	4.2190      	8.0000      	149.0000    	0.0000      	Open  	;
 P-1541          	J-603           	O-AV-434        	2.9000      	8.0000      	149.0000    	0.0000      	Open  	;
 P-1542          	J-1613          	J-603           	2.2500      	8.0000      	149.0000    	0.0000      	Open  	;
 P-1543          	J-1614          	J-601           	2.7890      	8.0000      	149.0000    	0.0000      	Open  	;
 P-1544          	J-555           	J-1615          	1.3200      	8.0000      	149.0000    	0.0000      	Open  	;
 P-1545          	J-1616          	J-553           	2.5590      	8.0000      	149.0000    	0.0000      	Open  	;
 P-1546          	J-1617          	J-550           	6.1500      	8.0000      	149.0000    	0.0000      	Open  	;
 P-1547          	J-1618          	J-549           	2.3390      	8.0000      	149.0000    	0.0000      	Open  	;
 P-1548          	J-1619          	J-658           	4.6300      	8.0000      	149.0000    	0.0000      	Open  	;
 P-1549          	J-642           	J-282           	3.1600      	6.0000      	149.0000    	0.0000      	Open  	;
 P-155           	J-266           	J-267           	1796.6700   	3.0000      	147.0000    	0.0000      	Open  	;
 P-1550          	J-283           	J-1620          	2.7690      	6.0000      	149.0000    	0.0000      	Open  	;
 P-1551          	J-310           	J-1621          	317.1090    	6.0000      	149.0000    	0.0000      	Open  	;
 P-1552          	J-1622          	J-522           	7.3000      	8.0000      	149.0000    	0.0000      	Open  	;
 P-1553          	J-524           	J-1623          	23.6900     	8.0000      	149.0000    	0.0000      	Open  	;
 P-1554          	J-1520          	J-1518          	198.5890    	3.0000      	137.0000    	0.0000      	Open  	;
 P-1555          	J-1494          	J-1518          	494.9800    	3.0000      	137.0000    	0.0000      	Open  	;
 P-1556          	J-1624          	J-1499          	2.7500      	3.0000      	137.0000    	0.0000      	Open  	;
 P-1558          	J-1625          	J-955           	220.7400    	3.0000      	137.0000    	0.0000      	Open  	;
 P-1559          	J-1626          	J-1625          	1.6290      	3.0000      	137.0000    	0.0000      	Open  	;
 P-156           	J-269           	O-AV-458        	2247.7700   	8.0000      	149.0000    	0.0000      	Open  	;
 P-1560          	J-1627          	J-954           	3.8190      	12.0000     	142.0000    	0.0000      	Open  	;
 P-1561          	J-1628          	J-878           	4.2500      	3.0000      	137.0000    	0.0000      	Open  	;
 P-1562          	J-708           	J-1629          	1.2690      	3.0000      	137.0000    	0.0000      	Open  	;
 P-1563          	J-874           	J-192           	124.9490    	12.0000     	142.0000    	0.0000      	Open  	;
 P-1564          	J-215           	O-AV-396        	47.6500     	12.0000     	142.0000    	0.0000      	Open  	;
 P-1565          	J-880           	J-1630          	2.0000      	12.0000     	142.0000    	0.0000      	Open  	;
 P-1566          	J-1631          	J-1632          	1.9600      	12.0000     	142.0000    	0.0000      	Open  	;
 P-1567          	J-1022          	J-1631          	6.6390      	12.0000     	142.0000    	0.0000      	Open  	;
 P-1568          	J-1098          	O-AV-402        	5.0390      	12.0000     	142.0000    	0.0000      	Open  	;
 P-1569          	J-787           	J-1633          	32.0290     	12.0000     	150.0000    	0.0000      	Open  	;
 P-157           	J-264           	J-270           	2446.9190   	8.0000      	149.0000    	0.0000      	Open  	;
 P-1570          	J-335           	J-1634          	0.4090      	4.0000      	147.0000    	0.0000      	Open  	;
 P-1571          	J-198           	J-247           	210.3600    	8.0000      	149.0000    	0.0000      	Open  	;
 P-1572          	J-1635          	J-198           	2.7990      	8.0000      	149.0000    	0.0000      	Open  	;
 P-1573          	J-1636          	J-1008          	2.6190      	8.0000      	149.0000    	0.0000      	Open  	;
 P-1574          	J-237           	J-1008          	2465.7500   	8.0000      	149.0000    	0.0000      	Open  	;
 P-1575          	J-1637          	J-237           	2.2200      	8.0000      	149.0000    	0.0000      	Open  	;
 P-1576          	J-1638          	O-AV-100        	7.7500      	8.0000      	149.0000    	0.0000      	Open  	;
 P-1577          	I-AV-72         	J-285           	1490.2800   	6.0000      	149.0000    	0.0000      	Open  	;
 P-1578          	J-1638          	J-1009          	11.8590     	12.0000     	142.0000    	0.0000      	Open  	;
 P-1579          	J-1035          	J-1640          	2.4600      	12.0000     	142.0000    	0.0000      	Open  	;
 P-158           	J-272           	O-AV-335        	4894.2400   	6.0000      	149.0000    	0.0000      	Open  	;
 P-1580          	J-1641          	J-705           	1.7690      	12.0000     	142.0000    	0.0000      	Open  	;
 P-1581          	J-704           	J-705           	651.6500    	12.0000     	142.0000    	0.0000      	Open  	;
 P-1582          	J-1642          	J-1643          	1.9500      	6.0000      	142.0000    	0.0000      	Open  	;
 P-1583          	I-AV-73         	J-749           	2101.2190   	12.0000     	150.0000    	0.0000      	Open  	;
 P-1584          	J-1644          	J-152           	4.2100      	8.0000      	149.0000    	0.0000      	Open  	;
 P-1585          	I-AV-74         	J-284           	14.4490     	8.0000      	149.0000    	0.0000      	Open  	;
 P-1586          	J-521           	J-1645          	6.7300      	8.0000      	149.0000    	0.0000      	Open  	;
 P-1587          	J-1646          	J-520           	2.2990      	8.0000      	149.0000    	0.0000      	Open  	;
 P-1588          	J-1647          	J-11            	2.0190      	8.0000      	149.0000    	0.0000      	Open  	;
 P-1589          	J-1218          	J-1648          	2.5690      	3.0000      	147.0000    	0.0000      	Open  	;
 P-159           	O-Wilson_Branch 	J-333           	39.9190     	4.0000      	147.0000    	0.0000      	Open  	;
 P-1590          	J-1649          	J-1219          	2.9900      	3.0000      	147.0000    	0.0000      	Open  	;
 P-1591          	J-1056          	J-1650          	3.6600      	8.0000      	149.0000    	0.0000      	Open  	;
 P-1592          	J-1056          	O-AV-342        	66.3700     	8.0000      	149.0000    	0.0000      	Open  	;
 P-1593          	I-AV-75         	J-156           	1801.4200   	8.0000      	149.0000    	0.0000      	Open  	;
 P-1594          	J-1223          	J-1652          	3.0490      	3.0000      	147.0000    	0.0000      	Open  	;
 P-1595          	J-1057          	J-1653          	5.6590      	8.0000      	149.0000    	0.0000      	Open  	;
 P-1596          	J-234           	J-1654          	4.6500      	8.0000      	149.0000    	0.0000      	Open  	;
 P-1597          	J-1655          	J-81            	0.9700      	8.0000      	149.0000    	0.0000      	Open  	;
 P-1598          	J-1656          	J-1214          	1.5390      	3.0000      	147.0000    	0.0000      	Open  	;
 P-1599          	J-1206          	J-199           	1441.3190   	8.0000      	149.0000    	0.0000      	Open  	;
 P-16            	J-30            	J-31            	1144.6500   	8.0000      	149.0000    	0.0000      	Open  	;
 P-160           	J-275           	J-276           	2213.9190   	6.0000      	149.0000    	0.0000      	Open  	;
 P-1600          	J-1657          	J-199           	1.7990      	8.0000      	149.0000    	0.0000      	Open  	;
 P-1601          	J-189           	O-AV-310        	0.1290      	2.0000      	140.0000    	0.0000      	Open  	;
 P-1602          	J-1658          	J-32            	2.6090      	2.0000      	140.0000    	0.0000      	Open  	;
 P-1603          	I-AV-76         	J-156           	4444.9100   	8.0000      	149.0000    	0.0000      	Open  	;
 P-1604          	I-AV-78         	J-642           	1.6200      	6.0000      	149.0000    	0.0000      	Open  	;
 P-1605          	I-AV-80         	J-643           	6.8290      	6.0000      	149.0000    	0.0000      	Open  	;
 P-1606          	J-187           	J-1661          	2.5790      	12.0000     	142.0000    	0.0000      	Open  	;
 P-1607          	J-1662          	J-618           	2.1400      	12.0000     	142.0000    	0.0000      	Open  	;
 P-1608          	J-619           	J-1663          	0.9590      	12.0000     	142.0000    	0.0000      	Open  	;
 P-1609          	J-386           	J-1664          	2.3900      	2.0000      	140.0000    	0.0000      	Open  	;
 P-161           	J-204           	J-277           	2473.5500   	6.0000      	149.0000    	0.0000      	Open  	;
 P-1610          	J-1665          	O-AV-298        	10.3990     	12.0000     	142.0000    	0.0000      	Open  	;
 P-1611          	J-1665          	O-AV-300        	9.7290      	12.0000     	142.0000    	0.0000      	Open  	;
 P-1612          	I-AV-81         	J-84            	655.6400    	4.0000      	147.0000    	0.0000      	Open  	;
 P-1613          	J-1665          	J-1667          	3.1500      	12.0000     	142.0000    	0.0000      	Open  	;
 P-1614          	J-352           	J-1668          	2.0890      	3.0000      	147.0000    	0.0000      	Open  	;
 P-1615          	J-387           	J-1669          	1.3090      	2.0000      	140.0000    	0.0000      	Open  	;
 P-1616          	J-119           	O-AV-297        	81.8490     	12.0000     	142.0000    	0.0000      	Open  	;
 P-1617          	I-AV-82         	O-AV-83         	85.3700     	6.0000      	149.0000    	0.0000      	Open  	;
 P-1618          	J-1671          	J-116           	12.2700     	12.0000     	142.0000    	0.0000      	Open  	;
 P-1619          	J-351           	O-AV-295        	3.5790      	3.0000      	147.0000    	0.0000      	Open  	;
 P-162           	J-278           	J-279           	2811.4490   	6.0000      	149.0000    	0.0000      	Open  	;
 P-1620          	J-1673          	J-351           	2.4800      	3.0000      	147.0000    	0.0000      	Open  	;
 P-1621          	J-1672          	J-1674          	3.5790      	3.0000      	147.0000    	0.0000      	Open  	;
 P-1622          	I-AV-83         	O-AV-85         	98.7500     	6.0000      	149.0000    	0.0000      	Open  	;
 P-1623          	I-AV-84         	J-103           	6.6500      	4.0000      	147.0000    	0.0000      	Open  	;
 P-1624          	J-1676          	J-1675          	3.2100      	3.0000      	137.0000    	0.0000      	Open  	;
 P-1625          	J-1017          	J-1677          	0.7500      	12.0000     	142.0000    	0.0000      	Open  	;
 P-1626          	J-1160          	J-1678          	3.6600      	3.0000      	137.0000    	0.0000      	Open  	;
 P-1627          	J-1164          	J-1387          	4970.7000   	3.0000      	137.0000    	0.0000      	Open  	;
 P-1628          	J-1166          	J-1680          	11.1000     	12.0000     	142.0000    	0.0000      	Open  	;
 P-1629          	I-AV-85         	J-1269          	462.9290    	6.0000      	149.0000    	0.0000      	Open  	;
 P-163           	J-280           	J-281           	1603.7090   	6.0000      	149.0000    	0.0000      	Open  	;
 P-1630          	J-567           	J-1681          	2.3800      	12.0000     	142.0000    	0.0000      	Open  	;
 P-1631          	J-1161          	O-AV-408        	997.2700    	12.0000     	142.0000    	0.0000      	Open  	;
 P-1632          	J-570           	J-99            	16.7600     	3.0000      	137.0000    	0.0000      	Open  	;
 P-1633          	I-AV-86         	J-1271          	1898.2190   	4.0000      	147.0000    	0.0000      	Open  	;
 P-1634          	J-574           	J-1683          	4.3290      	3.0000      	137.0000    	0.0000      	Open  	;
 P-1635          	J-575           	J-1684          	6.4400      	3.0000      	137.0000    	0.0000      	Open  	;
 P-1636          	J-572           	J-1685          	2.5690      	3.0000      	137.0000    	0.0000      	Open  	;
 P-1637          	J-578           	J-1686          	3.6300      	12.0000     	142.0000    	0.0000      	Open  	;
 P-1638          	J-577           	J-1687          	1.1100      	12.0000     	142.0000    	0.0000      	Open  	;
 P-1639          	J-1045          	J-104           	153.7790    	12.0000     	142.0000    	0.0000      	Open  	;
 P-164           	J-282           	J-283           	3390.5800   	6.0000      	149.0000    	0.0000      	Open  	;
 P-1640          	J-1689          	O-AV-459        	825.0800    	12.0000     	142.0000    	0.0000      	Open  	;
 P-1641          	I-AV-87         	J-360           	3152.3700   	3.0000      	147.0000    	0.0000      	Open  	;
 P-1642          	J-1047          	J-1690          	2.0890      	12.0000     	142.0000    	0.0000      	Open  	;
 P-1643          	J-1689          	O-AV-2          	835.7390    	12.0000     	142.0000    	0.0000      	Open  	;
 P-1644          	J-1689          	I-AV-470        	35.0800     	12.0000     	142.0000    	0.0000      	Open  	;
 P-1645          	J-1692          	J-1693          	3.8290      	12.0000     	142.0000    	0.0000      	Open  	;
 P-1646          	J-1048          	O-AV-13         	1.7790      	12.0000     	142.0000    	0.0000      	Open  	;
 P-1647          	I-AV-88         	J-1040          	20.4690     	6.0000      	149.0000    	0.0000      	Open  	;
 P-1648          	J-582           	J-1694          	5.1300      	12.0000     	142.0000    	0.0000      	Open  	;
 P-1649          	J-766           	J-1695          	3.9900      	3.0000      	137.0000    	0.0000      	Open  	;
 P-165           	J-284           	O-AV-72         	5.1300      	6.0000      	149.0000    	0.0000      	Open  	;
 P-1650          	J-770           	J-89            	70.0890     	3.0000      	137.0000    	0.0000      	Open  	;
 P-1651          	J-586           	J-1696          	5.5590      	3.0000      	137.0000    	0.0000      	Open  	;
 P-1652          	J-1461          	I-AV-168        	87.2500     	3.0000      	137.0000    	0.0000      	Open  	;
 P-1653          	I-AV-91         	O-AV-88         	4.7800      	6.0000      	149.0000    	0.0000      	Open  	;
 P-1654          	I-AV-92         	O-AV-91         	5.5100      	6.0000      	149.0000    	0.0000      	Open  	;
 P-1655          	J-1698          	J-1184          	2.5790      	3.0000      	137.0000    	0.0000      	Open  	;
 P-1656          	J-1185          	J-1699          	8.4200      	3.0000      	137.0000    	0.0000      	Open  	;
 P-1657          	J-813           	J-1700          	5.9200      	12.0000     	142.0000    	0.0000      	Open  	;
 P-1658          	J-1701          	J-821           	0.7200      	3.0000      	137.0000    	0.0000      	Open  	;
 P-1659          	J-822           	J-1606          	70.6990     	3.0000      	137.0000    	0.0000      	Open  	;
 P-166           	J-286           	O-AV-15         	4021.2600   	6.0000      	149.0000    	0.0000      	Open  	;
 P-1660          	J-859           	J-1702          	4.1500      	3.0000      	137.0000    	0.0000      	Open  	;
 P-1661          	J-855           	J-1703          	6.2300      	3.0000      	137.0000    	0.0000      	Open  	;
 P-1662          	J-1187          	J-1704          	5.4400      	3.0000      	137.0000    	0.0000      	Open  	;
 P-1663          	J-719           	J-1705          	4.2690      	3.0000      	137.0000    	0.0000      	Open  	;
 P-1664          	J-722           	J-1706          	1.0590      	12.0000     	142.0000    	0.0000      	Open  	;
 P-1665          	J-725           	O-AV-232        	0.1090      	12.0000     	142.0000    	0.0000      	Open  	;
 P-1666          	J-1708          	J-755           	1.9290      	12.0000     	142.0000    	0.0000      	Open  	;
 P-1667          	J-751           	J-1709          	1.2400      	12.0000     	142.0000    	0.0000      	Open  	;
 P-1668          	J-1710          	J-833           	2.5190      	6.0000      	142.0000    	0.0000      	Open  	;
 P-1669          	J-1711          	J-834           	6.9290      	6.0000      	142.0000    	0.0000      	Open  	;
 P-167           	J-288           	J-289           	1348.6190   	6.0000      	149.0000    	0.0000      	Open  	;
 P-1670          	J-1712          	J-836           	1.2990      	6.0000      	142.0000    	0.0000      	Open  	;
 P-1671          	J-839           	J-1713          	5.4490      	2.0000      	129.0000    	0.0000      	Open  	;
 P-1672          	J-1714          	J-840           	3.3390      	2.0000      	129.0000    	0.0000      	Open  	;
 P-1673          	J-1306          	J-1715          	2.6090      	8.0000      	149.0000    	0.0000      	Open  	;
 P-1674          	J-1716          	J-609           	2.0690      	4.0000      	147.0000    	0.0000      	Open  	;
 P-1675          	J-1717          	I-AV-123        	5.2500      	4.0000      	147.0000    	0.0000      	Open  	;
 P-1676          	J-509           	J-1718          	1.1490      	8.0000      	149.0000    	0.0000      	Open  	;
 P-1677          	J-228           	O-AV-110        	36.9700     	8.0000      	149.0000    	0.0000      	Open  	;
 P-1678          	J-228           	J-1719          	1.4090      	8.0000      	149.0000    	0.0000      	Open  	;
 P-1679          	J-763           	O-AV-105        	54.7500     	4.0000      	147.0000    	0.0000      	Open  	;
 P-168           	J-290           	J-291           	1442.2190   	6.0000      	149.0000    	0.0000      	Open  	;
 P-1680          	J-763           	J-1720          	4.1100      	4.0000      	147.0000    	0.0000      	Open  	;
 P-1681          	J-97            	J-1721          	39.1500     	4.0000      	147.0000    	0.0000      	Open  	;
 P-1682          	J-1722          	J-1723          	347.5400    	4.0000      	147.0000    	0.0000      	Open  	;
 P-1683          	J-1723          	J-329           	614.6400    	4.0000      	147.0000    	0.0000      	Open  	;
 P-1684          	J-329           	J-1724          	12.6090     	4.0000      	147.0000    	0.0000      	Open  	;
 P-1685          	O-AV-93         	J-1040          	4.9400      	6.0000      	149.0000    	0.0000      	Open  	;
 P-1686          	J-462           	J-364           	1069.6190   	8.0000      	149.0000    	0.0000      	Open  	;
 P-1687          	J-1725          	J-462           	1794.4300   	8.0000      	149.0000    	0.0000      	Open  	;
 P-1688          	I-AV-94         	J-1044          	1479.8100   	6.0000      	149.0000    	0.0000      	Open  	;
 P-1689          	J-208           	J-1726          	1.9400      	8.0000      	149.0000    	0.0000      	Open  	;
 P-169           	J-934           	J-447           	4776.1200   	12.0000     	150.0000    	0.0000      	Open  	;
 P-1690          	J-144           	J-1727          	2.1600      	8.0000      	149.0000    	0.0000      	Open  	;
 P-1691          	J-145           	J-1728          	1.7400      	8.0000      	149.0000    	0.0000      	Open  	;
 P-1692          	J-370           	J-1729          	503.1300    	3.0000      	147.0000    	0.0000      	Open  	;
 P-1693          	J-315           	I-AV-50         	3.2790      	3.0000      	147.0000    	0.0000      	Open  	;
 P-1694          	I-AV-95         	J-983           	1387.7700   	6.0000      	149.0000    	0.0000      	Open  	;
 P-1695          	J-304           	O-AV-469        	0.1090      	6.0000      	149.0000    	0.0000      	Open  	;
 P-1696          	J-1730          	J-1731          	3.6300      	6.0000      	149.0000    	0.0000      	Open  	;
 P-1697          	J-246           	O-AV-472        	131.8500    	3.0000      	147.0000    	0.0000      	Open  	;
 P-1698          	J-300           	O-AV-276        	212.7890    	6.0000      	149.0000    	0.0000      	Open  	;
 P-1699          	J-306           	O-AV-473        	1317.5200   	6.0000      	149.0000    	0.0000      	Open  	;
 P-170           	O-Wolfepen_Creek	J-1247          	7.7690      	4.0000      	147.0000    	0.0000      	Open  	;
 P-1700          	J-1732          	J-1114          	1.9900      	3.0000      	147.0000    	0.0000      	Open  	;
 P-1701          	J-1733          	J-1112          	1.3600      	3.0000      	147.0000    	0.0000      	Open  	;
 P-1702          	J-1734          	O-AV-461        	8.9490      	3.0000      	147.0000    	0.0000      	Open  	;
 P-1703          	J-1113          	J-1734          	150.2100    	6.0000      	149.0000    	0.0000      	Open  	;
 P-1704          	J-1735          	J-1736          	2.6300      	3.0000      	147.0000    	0.0000      	Open  	;
 P-1705          	J-1734          	J-70            	973.9690    	6.0000      	149.0000    	0.0000      	Open  	;
 P-1706          	J-917           	J-1737          	2456.9390   	8.0000      	149.0000    	0.0000      	Open  	;
 P-1707          	J-1737          	J-1738          	2.8490      	8.0000      	149.0000    	0.0000      	Open  	;
 P-1708          	J-49            	J-48            	5612.3500   	12.0000     	150.0000    	0.0000      	Open  	;
 P-1709          	J-248           	J-30            	746.8090    	8.0000      	149.0000    	0.0000      	Open  	;
 P-1710          	J-402           	J-90            	1471.1400   	6.0000      	149.0000    	0.0000      	Open  	;
 P-1711          	J-406           	O-AV-444        	1012.2390   	8.0000      	149.0000    	0.0000      	Open  	;
 P-1712          	J-410           	J-1097          	3214.0400   	8.0000      	149.0000    	0.0000      	Open  	;
 P-1713          	J-418           	J-406           	578.5590    	8.0000      	149.0000    	0.0000      	Open  	;
 P-1714          	J-430           	J-907           	352.0190    	8.0000      	149.0000    	0.0000      	Open  	;
 P-1715          	J-438           	J-435           	1097.0990   	8.0000      	149.0000    	0.0000      	Open  	;
 P-1716          	J-442           	J-447           	1590.8190   	8.0000      	149.0000    	0.0000      	Open  	;
 P-1717          	J-498           	J-486           	1015.9000   	8.0000      	149.0000    	0.0000      	Open  	;
 P-1718          	J-513           	J-512           	2708.3790   	16.0000     	142.0000    	0.0000      	Open  	;
 P-1719          	J-535           	J-78            	752.7600    	4.0000      	147.0000    	0.0000      	Open  	;
 P-172           	J-297           	O-AV-190        	6728.0800   	6.0000      	149.0000    	0.0000      	Open  	;
 P-1720          	J-591           	J-1496          	277.4500    	3.0000      	137.0000    	0.0000      	Open  	;
 P-1721          	J-623           	J-953           	192.3800    	12.0000     	142.0000    	0.0000      	Open  	;
 P-1722          	J-943           	J-946           	1.9500      	8.0000      	149.0000    	0.0000      	Open  	;
 P-1723          	J-984           	J-127           	4142.7400   	3.0000      	147.0000    	0.0000      	Open  	;
 P-1724          	J-1193          	J-521           	1865.3190   	8.0000      	149.0000    	0.0000      	Open  	;
 P-1725          	J-75            	O-AV-359        	461.4400    	4.0000      	147.0000    	0.0000      	Open  	;
 P-1726          	J-1244          	J-1574          	946.0590    	4.0000      	147.0000    	0.0000      	Open  	;
 P-1727          	J-1311          	J-243           	1595.1800   	8.0000      	149.0000    	0.0000      	Open  	;
 P-1728          	J-1354          	J-1351          	5.2390      	3.0000      	147.0000    	0.0000      	Open  	;
 P-1729          	J-1363          	J-1076          	4776.8390   	6.0000      	149.0000    	0.0000      	Open  	;
 P-173           	J-299           	J-294           	542.3090    	6.0000      	149.0000    	0.0000      	Open  	;
 P-1730          	I-AV-96         	J-403           	79.3790     	6.0000      	149.0000    	0.0000      	Open  	;
 P-1731          	J-1390          	O-AV-283        	16.4090     	12.0000     	142.0000    	0.0000      	Open  	;
 P-1732          	J-1587          	O-AV-379        	1.2500      	6.0000      	149.0000    	0.0000      	Open  	;
 P-1733          	J-1722          	O-AV-96         	2821.3000   	6.0000      	149.0000    	0.0000      	Open  	;
 P-1734          	I-AV-97         	J-125           	2392.5800   	12.0000     	142.0000    	0.0000      	Open  	;
 P-1735          	O-AV-98         	I-AV-99         	10168.7300  	8.0000      	149.0000    	0.0000      	Open  	;
 P-1736          	O-AV-99         	J-1638          	72.2090     	8.0000      	149.0000    	0.0000      	Open  	;
 P-1737          	I-AV-100        	J-1207          	0.5600      	8.0000      	149.0000    	0.0000      	Open  	;
 P-1738          	I-AV-103        	J-335           	28.5590     	4.0000      	147.0000    	0.0000      	Open  	;
 P-1739          	I-AV-104        	J-1531          	7.5700      	8.0000      	149.0000    	0.0000      	Open  	;
 P-174           	J-300           	J-301           	1408.9390   	6.0000      	149.0000    	0.0000      	Open  	;
 P-1740          	I-AV-105        	O-AV-106        	4.1590      	4.0000      	147.0000    	0.0000      	Open  	;
 P-1741          	I-AV-106        	J-100           	127.6200    	4.0000      	147.0000    	0.0000      	Open  	;
 P-1742          	I-AV-107        	J-93            	1120.9100   	4.0000      	147.0000    	0.0000      	Open  	;
 P-1743          	I-AV-108        	J-749           	3.8800      	12.0000     	150.0000    	0.0000      	Open  	;
 P-1744          	I-AV-109        	J-1005          	345.7200    	4.0000      	147.0000    	0.0000      	Open  	;
 P-1745          	I-AV-110        	J-508           	475.1300    	8.0000      	149.0000    	0.0000      	Open  	;
 P-1746          	I-AV-111        	O-AV-118        	147.8600    	8.0000      	149.0000    	0.0000      	Open  	;
 P-1747          	I-AV-114        	O-AV-119        	174.2400    	8.0000      	149.0000    	0.0000      	Open  	;
 P-1748          	I-AV-116        	O-AV-114        	7.4490      	8.0000      	149.0000    	0.0000      	Open  	;
 P-1749          	I-AV-117        	O-AV-116        	2.7590      	8.0000      	149.0000    	0.0000      	Open  	;
 P-175           	J-302           	O-Elk_Glenn     	25.0900     	6.0000      	149.0000    	0.0000      	Open  	;
 P-1750          	I-AV-118        	O-AV-117        	2.2890      	8.0000      	149.0000    	0.0000      	Open  	;
 P-1751          	I-AV-119        	O-AV-122        	69.6690     	8.0000      	149.0000    	0.0000      	Open  	;
 P-1752          	I-AV-120        	I-Output_Pump   	140.4600    	8.0000      	149.0000    	0.0000      	Open  	;
 P-1753          	O-AV-121        	O-AV-108        	2831.7800   	12.0000     	150.0000    	0.0000      	Open  	;
 P-1754          	I-AV-122        	J-258           	2.8800      	8.0000      	149.0000    	0.0000      	Open  	;
 P-1755          	O-AV-123        	J-606           	0.2800      	4.0000      	147.0000    	0.0000      	Open  	;
 P-1756          	I-AV-125        	J-606           	12.3590     	4.0000      	147.0000    	0.0000      	Open  	;
 P-1757          	I-AV-126        	O-AV-129        	340.5190    	4.0000      	147.0000    	0.0000      	Open  	;
 P-1758          	O-AV-128        	J-610           	0.0900      	4.0000      	147.0000    	0.0000      	Open  	;
 P-1759          	I-AV-129        	J-611           	2.8290      	4.0000      	147.0000    	0.0000      	Open  	;
 P-176           	J-304           	J-246           	399.5590    	6.0000      	149.0000    	0.0000      	Open  	;
 P-1760          	I-AV-130        	J-610           	48.6190     	4.0000      	147.0000    	0.0000      	Open  	;
 P-1761          	O-AV-131        	J-258           	580.3590    	8.0000      	149.0000    	0.0000      	Open  	;
 P-1762          	I-AV-132        	O-AV-133        	2.0590      	8.0000      	149.0000    	0.0000      	Open  	;
 P-1763          	I-AV-133        	J-10            	161.9600    	8.0000      	149.0000    	0.0000      	Open  	;
 P-1764          	I-AV-134        	J-457           	25.0690     	8.0000      	149.0000    	0.0000      	Open  	;
 P-1765          	I-AV-136        	O-AV-137        	395.5700    	8.0000      	149.0000    	0.0000      	Open  	;
 P-1766          	I-AV-137        	J-486           	356.8200    	8.0000      	149.0000    	0.0000      	Open  	;
 P-1767          	I-AV-138        	J-374           	1.7890      	8.0000      	149.0000    	0.0000      	Open  	;
 P-1768          	I-AV-141        	O-AV-142        	9.8100      	8.0000      	149.0000    	0.0000      	Open  	;
 P-1769          	I-AV-142        	O-AV-138        	287.2000    	8.0000      	149.0000    	0.0000      	Open  	;
 P-177           	J-305           	J-306           	3908.6200   	6.0000      	149.0000    	0.0000      	Open  	;
 P-1770          	O-AV-143        	J-541           	0.1700      	8.0000      	149.0000    	0.0000      	Open  	;
 P-1771          	I-AV-144        	O-AV-141        	779.4290    	8.0000      	149.0000    	0.0000      	Open  	;
 P-1772          	I-AV-145        	J-148           	0.2700      	8.0000      	149.0000    	0.0000      	Open  	;
 P-1773          	O-AV-147        	J-278           	2459.3990   	6.0000      	149.0000    	0.0000      	Open  	;
 P-1774          	I-AV-148        	O-AV-150        	6.6990      	8.0000      	149.0000    	0.0000      	Open  	;
 P-1775          	I-AV-149        	J-1315          	2.5000      	8.0000      	149.0000    	0.0000      	Open  	;
 P-1776          	I-AV-150        	J-600           	5.3090      	8.0000      	149.0000    	0.0000      	Open  	;
 P-1777          	I-AV-151        	J-322           	5711.5000   	6.0000      	149.0000    	0.0000      	Open  	;
 P-1778          	I-AV-153        	J-80            	1.8300      	4.0000      	147.0000    	0.0000      	Open  	;
 P-1779          	I-AV-154        	J-203           	11.4200     	8.0000      	149.0000    	0.0000      	Open  	;
 P-178           	J-300           	J-227           	1526.1800   	6.0000      	149.0000    	0.0000      	Open  	;
 P-1780          	I-AV-155        	O-AV-156        	33.3490     	8.0000      	149.0000    	0.0000      	Open  	;
 P-1781          	I-AV-156        	J-203           	377.2390    	8.0000      	149.0000    	0.0000      	Open  	;
 P-1782          	I-AV-158        	J-339           	1737.1800   	8.0000      	149.0000    	0.0000      	Open  	;
 P-1783          	O-AV-159        	J-682           	828.1500    	3.0000      	147.0000    	0.0000      	Open  	;
 P-1784          	I-AV-160        	J-779           	154.0500    	3.0000      	147.0000    	0.0000      	Open  	;
 P-1785          	I-AV-161        	O-AV-165        	3338.6490   	12.0000     	142.0000    	0.0000      	Open  	;
 P-1786          	I-AV-162        	J-1032          	11.0000     	8.0000      	149.0000    	0.0000      	Open  	;
 P-1787          	I-AV-163        	J-779           	447.1490    	8.0000      	149.0000    	0.0000      	Open  	;
 P-1788          	I-AV-165        	O-AV-166        	570.8900    	12.0000     	142.0000    	0.0000      	Open  	;
 P-1789          	I-AV-166        	J-179           	1568.8290   	12.0000     	142.0000    	0.0000      	Open  	;
 P-179           	J-220           	J-307           	145.7400    	6.0000      	149.0000    	0.0000      	Open  	;
 P-1790          	O-AV-167        	J-797           	6051.4190   	4.0000      	137.0000    	0.0000      	Open  	;
 P-1791          	I-AV-169        	J-796           	364.0190    	12.0000     	142.0000    	0.0000      	Open  	;
 P-1792          	I-AV-170        	J-796           	488.5700    	12.0000     	142.0000    	0.0000      	Open  	;
 P-1793          	O-AV-171        	J-802           	2547.6000   	4.0000      	137.0000    	0.0000      	Open  	;
 P-1794          	I-AV-172        	J-801           	0.9800      	12.0000     	142.0000    	0.0000      	Open  	;
 P-1795          	I-AV-173        	O-AV-174        	883.9400    	12.0000     	142.0000    	0.0000      	Open  	;
 P-1796          	I-AV-174        	J-61            	1042.5690   	12.0000     	142.0000    	0.0000      	Open  	;
 P-1797          	I-AV-175        	J-1032          	2.0190      	8.0000      	149.0000    	0.0000      	Open  	;
 P-1798          	I-AV-177        	J-804           	249.3990    	3.0000      	137.0000    	0.0000      	Open  	;
 P-1799          	O-AV-178        	J-1272          	836.5000    	3.0000      	137.0000    	0.0000      	Open  	;
 P-180           	O-Yellow_Creek  	J-310           	138.9700    	6.0000      	149.0000    	0.0000      	Open  	;
 P-1800          	I-AV-180        	O-AV-181        	33.2990     	12.0000     	142.0000    	0.0000      	Open  	;
 P-1801          	I-AV-181        	J-1275          	41.1690     	12.0000     	142.0000    	0.0000      	Open  	;
 P-1802          	I-AV-182        	O-AV-184        	2131.2700   	12.0000     	142.0000    	0.0000      	Open  	;
 P-1803          	I-AV-183        	O-AV-185        	11.5100     	12.0000     	142.0000    	0.0000      	Open  	;
 P-1804          	I-AV-184        	O-AV-186        	12.5200     	12.0000     	142.0000    	0.0000      	Open  	;
 P-1805          	I-AV-185        	J-863           	16.9400     	12.0000     	142.0000    	0.0000      	Open  	;
 P-1806          	I-AV-186        	I-Dry_Creek     	10.2700     	12.0000     	142.0000    	0.0000      	Open  	;
 P-1807          	I-AV-187        	J-960           	75.6390     	8.0000      	149.0000    	0.0000      	Open  	;
 P-1808          	I-AV-189        	O-AV-294        	1706.8000   	6.0000      	149.0000    	0.0000      	Open  	;
 P-1809          	O-AV-191        	J-514           	5560.6000   	16.0000     	142.0000    	0.0000      	Open  	;
 P-181           	J-227           	J-309           	2648.4290   	6.0000      	149.0000    	0.0000      	Open  	;
 P-1810          	I-AV-192        	J-451           	884.6500    	4.0000      	147.0000    	0.0000      	Open  	;
 P-1811          	I-AV-193        	J-964           	3.1700      	8.0000      	149.0000    	0.0000      	Open  	;
 P-1812          	I-AV-194        	J-478           	229.1000    	8.0000      	149.0000    	0.0000      	Open  	;
 P-1813          	I-AV-195        	J-479           	1740.9100   	2.0000      	140.0000    	0.0000      	Open  	;
 P-1814          	I-AV-196        	J-412           	2018.2900   	6.0000      	149.0000    	0.0000      	Open  	;
 P-1815          	O-AV-197        	J-449           	1174.9690   	4.0000      	147.0000    	0.0000      	Open  	;
 P-1816          	I-AV-198        	J-1282          	1928.3590   	8.0000      	149.0000    	0.0000      	Open  	;
 P-1817          	I-AV-199        	J-1278          	10.6590     	2.0000      	140.0000    	0.0000      	Open  	;
 P-1818          	I-AV-202        	J-847           	2938.0100   	8.0000      	149.0000    	0.0000      	Open  	;
 P-1819          	I-AV-203        	O-AV-205        	2344.0900   	8.0000      	149.0000    	0.0000      	Open  	;
 P-182           	J-310           	J-88            	663.2800    	6.0000      	149.0000    	0.0000      	Open  	;
 P-1820          	I-AV-204        	J-851           	4.0500      	8.0000      	149.0000    	0.0000      	Open  	;
 P-1821          	I-AV-205        	J-851           	3.8290      	8.0000      	149.0000    	0.0000      	Open  	;
 P-1822          	I-AV-206        	J-413           	1159.9690   	4.0000      	147.0000    	0.0000      	Open  	;
 P-1823          	I-AV-207        	J-412           	838.2390    	6.0000      	149.0000    	0.0000      	Open  	;
 P-1824          	I-AV-208        	J-454           	2942.8700   	6.0000      	149.0000    	0.0000      	Open  	;
 P-1825          	I-AV-209        	J-1024          	942.3490    	3.0000      	137.0000    	0.0000      	Open  	;
 P-1826          	I-AV-210        	J-1023          	192.7200    	3.0000      	137.0000    	0.0000      	Open  	;
 P-1827          	I-AV-211        	J-1241          	2.1900      	12.0000     	142.0000    	0.0000      	Open  	;
 P-1828          	I-AV-214        	J-176           	150.0500    	12.0000     	142.0000    	0.0000      	Open  	;
 P-1829          	I-AV-215        	J-68            	11.9200     	2.0000      	129.0000    	0.0000      	Open  	;
 P-183           	J-307           	J-211           	800.2990    	6.0000      	149.0000    	0.0000      	Open  	;
 P-1830          	O-AV-216        	J-535           	190.1490    	4.0000      	147.0000    	0.0000      	Open  	;
 P-1831          	I-AV-217        	J-532           	242.6390    	4.0000      	147.0000    	0.0000      	Open  	;
 P-1832          	O-AV-218        	J-325           	1952.0500   	4.0000      	147.0000    	0.0000      	Open  	;
 P-1833          	I-AV-219        	J-324           	8.7890      	4.0000      	147.0000    	0.0000      	Open  	;
 P-1834          	I-AV-220        	J-852           	5382.0200   	12.0000     	142.0000    	0.0000      	Open  	;
 P-1835          	I-AV-221        	J-53            	2947.7900   	12.0000     	142.0000    	0.0000      	Open  	;
 P-1836          	I-AV-222        	J-128           	2608.7500   	12.0000     	142.0000    	0.0000      	Open  	;
 P-1837          	I-AV-225        	J-751           	3.3690      	12.0000     	142.0000    	0.0000      	Open  	;
 P-1838          	I-AV-227        	O-AV-230        	8.0500      	12.0000     	142.0000    	0.0000      	Open  	;
 P-1839          	O-AV-228        	J-1303          	3.1300      	12.0000     	142.0000    	0.0000      	Open  	;
 P-184           	J-311           	J-312           	4012.8000   	6.0000      	149.0000    	0.0000      	Open  	;
 P-1840          	I-AV-229        	J-756           	5.2100      	12.0000     	142.0000    	0.0000      	Open  	;
 P-1841          	I-AV-230        	O-AV-229        	22.6290     	12.0000     	142.0000    	0.0000      	Open  	;
 P-1842          	I-AV-231        	J-1380          	2649.1290   	12.0000     	142.0000    	0.0000      	Open  	;
 P-1843          	I-AV-232        	J-1707          	1.1390      	12.0000     	142.0000    	0.0000      	Open  	;
 P-1844          	I-AV-233        	J-723           	2.8090      	12.0000     	142.0000    	0.0000      	Open  	;
 P-1845          	I-AV-234        	J-722           	4.7100      	12.0000     	142.0000    	0.0000      	Open  	;
 P-1846          	I-AV-236        	J-830           	89.9890     	12.0000     	142.0000    	0.0000      	Open  	;
 P-1847          	I-AV-237        	O-AV-289        	952.8300    	12.0000     	142.0000    	0.0000      	Open  	;
 P-1848          	O-AV-239        	J-373           	988.0390    	3.0000      	147.0000    	0.0000      	Open  	;
 P-1849          	I-AV-240        	J-12            	666.2000    	3.0000      	137.0000    	0.0000      	Open  	;
 P-185           	J-313           	J-17            	1316.2500   	6.0000      	149.0000    	0.0000      	Open  	;
 P-1850          	I-AV-241        	J-855           	587.1790    	3.0000      	137.0000    	0.0000      	Open  	;
 P-1851          	I-AV-242        	O-AV-243        	2.9600      	3.0000      	137.0000    	0.0000      	Open  	;
 P-1852          	I-AV-243        	J-858           	50.6800     	3.0000      	137.0000    	0.0000      	Open  	;
 P-1853          	I-AV-244        	J-1187          	1533.4890   	3.0000      	137.0000    	0.0000      	Open  	;
 P-1854          	I-AV-245        	J-719           	228.2700    	3.0000      	137.0000    	0.0000      	Open  	;
 P-1855          	I-AV-247        	O-AV-248        	6.2600      	12.0000     	142.0000    	0.0000      	Open  	;
 P-1856          	I-AV-248        	J-1289          	242.3300    	12.0000     	142.0000    	0.0000      	Open  	;
 P-1857          	I-AV-249        	J-71            	6.6190      	12.0000     	142.0000    	0.0000      	Open  	;
 P-1858          	I-AV-251        	J-842           	13.6800     	6.0000      	142.0000    	0.0000      	Open  	;
 P-1859          	O-AV-252        	J-139           	1580.5600   	12.0000     	150.0000    	0.0000      	Open  	;
 P-186           	J-222           	J-314           	536.8900    	6.0000      	149.0000    	0.0000      	Open  	;
 P-1860          	I-AV-253        	J-71            	5845.8900   	12.0000     	142.0000    	0.0000      	Open  	;
 P-1861          	I-AV-254        	J-834           	955.5900    	6.0000      	142.0000    	0.0000      	Open  	;
 P-1862          	I-AV-255        	J-836           	1165.3000   	6.0000      	142.0000    	0.0000      	Open  	;
 P-1863          	O-AV-256        	J-837           	10.4700     	6.0000      	142.0000    	0.0000      	Open  	;
 P-1864          	I-AV-258        	J-837           	20.3890     	2.0000      	129.0000    	0.0000      	Open  	;
 P-1865          	O-AV-259        	J-841           	8.1700      	2.0000      	129.0000    	0.0000      	Open  	;
 P-1866          	I-AV-260        	J-844           	1548.6890   	12.0000     	150.0000    	0.0000      	Open  	;
 P-1867          	I-AV-261        	J-932           	17.9400     	12.0000     	142.0000    	0.0000      	Open  	;
 P-1868          	I-AV-264        	J-934           	3303.7290   	12.0000     	150.0000    	0.0000      	Open  	;
 P-1869          	I-AV-265        	O-AV-269        	2656.1590   	8.0000      	149.0000    	0.0000      	Open  	;
 P-187           	J-315           	J-316           	2098.1100   	6.0000      	149.0000    	0.0000      	Open  	;
 P-1870          	I-AV-266        	J-159           	1048.0400   	16.0000     	142.0000    	0.0000      	Open  	;
 P-1871          	I-AV-267        	J-923           	14.5500     	8.0000      	149.0000    	0.0000      	Open  	;
 P-1872          	I-AV-269        	O-AV-267        	8.5000      	8.0000      	149.0000    	0.0000      	Open  	;
 P-1873          	I-AV-270        	J-422           	351.1090    	8.0000      	149.0000    	0.0000      	Open  	;
 P-1874          	O-AV-271        	J-422           	3.0490      	2.0000      	140.0000    	0.0000      	Open  	;
 P-1875          	I-AV-272        	O-AV-273        	1942.3900   	8.0000      	149.0000    	0.0000      	Open  	;
 P-1876          	I-AV-273        	J-928           	1760.4590   	8.0000      	149.0000    	0.0000      	Open  	;
 P-1877          	I-AV-274        	J-214           	2716.8400   	8.0000      	149.0000    	0.0000      	Open  	;
 P-1878          	I-AV-276        	J-303           	1119.0100   	6.0000      	149.0000    	0.0000      	Open  	;
 P-1879          	I-AV-277        	O-AV-281        	5.6100      	12.0000     	142.0000    	0.0000      	Open  	;
 P-188           	J-317           	J-311           	2115.5500   	6.0000      	149.0000    	0.0000      	Open  	;
 P-1880          	I-AV-278        	J-1390          	106.5590    	12.0000     	142.0000    	0.0000      	Open  	;
 P-1881          	I-AV-280        	J-1230          	14.6700     	16.0000     	142.0000    	0.0000      	Open  	;
 P-1882          	I-AV-281        	O-AV-278        	1.9500      	12.0000     	142.0000    	0.0000      	Open  	;
 P-1883          	I-AV-282        	J-1172          	3.5790      	12.0000     	142.0000    	0.0000      	Open  	;
 P-1884          	I-AV-283        	J-1394          	1527.3000   	12.0000     	142.0000    	0.0000      	Open  	;
 P-1885          	I-AV-284        	J-1174          	3.1400      	12.0000     	142.0000    	0.0000      	Open  	;
 P-1886          	J-129           	O-AV-286        	1568.6800   	3.0000      	137.0000    	0.0000      	Open  	;
 P-1887          	I-AV-286        	J-1184          	5.5000      	3.0000      	137.0000    	0.0000      	Open  	;
 P-1888          	I-AV-288        	J-813           	1.5490      	12.0000     	142.0000    	0.0000      	Open  	;
 P-1889          	I-AV-289        	J-826           	5.3000      	12.0000     	142.0000    	0.0000      	Open  	;
 P-189           	J-318           	I-Wiley_Fork    	2175.1790   	6.0000      	149.0000    	0.0000      	Open  	;
 P-1890          	I-AV-291        	J-1179          	7.0590      	16.0000     	142.0000    	0.0000      	Open  	;
 P-1891          	O-AV-292        	J-223           	1289.3490   	8.0000      	149.0000    	0.0000      	Open  	;
 P-1892          	I-AV-293        	J-351           	5585.4300   	3.0000      	147.0000    	0.0000      	Open  	;
 P-1893          	I-AV-294        	O-AV-307        	2193.9890   	6.0000      	149.0000    	0.0000      	Open  	;
 P-1894          	I-AV-295        	J-1672          	3009.1690   	3.0000      	147.0000    	0.0000      	Open  	;
 P-1895          	I-AV-296        	J-117           	998.4890    	12.0000     	142.0000    	0.0000      	Open  	;
 P-1896          	I-AV-297        	J-116           	8.1300      	12.0000     	142.0000    	0.0000      	Open  	;
 P-1897          	I-AV-298        	J-118           	6.7100      	12.0000     	142.0000    	0.0000      	Open  	;
 P-1898          	I-AV-300        	J-120           	1290.5690   	12.0000     	142.0000    	0.0000      	Open  	;
 P-1899          	O-AV-302        	J-352           	1962.4200   	3.0000      	147.0000    	0.0000      	Open  	;
 P-19            	J-35            	J-36            	491.7790    	2.0000      	140.0000    	0.0000      	Open  	;
 P-190           	J-320           	J-321           	1403.3690   	6.0000      	149.0000    	0.0000      	Open  	;
 P-1900          	I-AV-303        	J-123           	734.5200    	12.0000     	142.0000    	0.0000      	Open  	;
 P-1901          	I-AV-304        	J-110           	339.4800    	3.0000      	147.0000    	0.0000      	Open  	;
 P-1902          	I-AV-305        	J-618           	7.4200      	12.0000     	142.0000    	0.0000      	Open  	;
 P-1903          	I-AV-306        	O-AV-308        	7.7100      	12.0000     	142.0000    	0.0000      	Open  	;
 P-1904          	I-AV-307        	J-1267          	1056.3190   	6.0000      	149.0000    	0.0000      	Open  	;
 P-1905          	I-AV-308        	O-AV-309        	44.6390     	12.0000     	142.0000    	0.0000      	Open  	;
 P-1906          	I-AV-309        	J-540           	62.8690     	12.0000     	142.0000    	0.0000      	Open  	;
 P-1907          	I-AV-310        	J-32            	2.4700      	2.0000      	140.0000    	0.0000      	Open  	;
 P-1908          	I-AV-313        	J-34            	1408.1500   	12.0000     	142.0000    	0.0000      	Open  	;
 P-1909          	I-AV-314        	J-777           	9.7500      	12.0000     	142.0000    	0.0000      	Open  	;
 P-191           	J-279           	O-AV-151        	4.2300      	6.0000      	149.0000    	0.0000      	Open  	;
 P-1910          	I-AV-315        	J-777           	8.7200      	12.0000     	142.0000    	0.0000      	Open  	;
 P-1911          	I-AV-316        	J-58            	79.8190     	8.0000      	149.0000    	0.0000      	Open  	;
 P-1912          	I-AV-317        	J-151           	1349.2500   	8.0000      	149.0000    	0.0000      	Open  	;
 P-1913          	I-AV-318        	J-361           	374.3390    	3.0000      	147.0000    	0.0000      	Open  	;
 P-1914          	I-AV-319        	J-69            	3329.4690   	12.0000     	150.0000    	0.0000      	Open  	;
 P-1915          	I-AV-320        	J-513           	4471.5490   	16.0000     	142.0000    	0.0000      	Open  	;
 P-1916          	O-AV-321        	J-132           	453.9500    	3.0000      	147.0000    	0.0000      	Open  	;
 P-1917          	I-AV-322        	J-1451          	427.7990    	3.0000      	147.0000    	0.0000      	Open  	;
 P-1918          	I-AV-325        	O-AV-326        	441.0100    	12.0000     	150.0000    	0.0000      	Open  	;
 P-1919          	I-AV-326        	J-63            	9.3100      	12.0000     	150.0000    	0.0000      	Open  	;
 P-192           	J-247           	J-133           	3466.7800   	4.0000      	147.0000    	0.0000      	Open  	;
 P-1920          	I-AV-327        	J-557           	1357.8000   	8.0000      	149.0000    	0.0000      	Open  	;
 P-1921          	I-AV-328        	J-181           	215.9600    	12.0000     	150.0000    	0.0000      	Open  	;
 P-1922          	I-AV-329        	J-155           	114.2690    	8.0000      	149.0000    	0.0000      	Open  	;
 P-1923          	I-AV-330        	J-1225          	2.7790      	8.0000      	149.0000    	0.0000      	Open  	;
 P-1924          	I-AV-331        	O-AV-332        	2.4200      	8.0000      	149.0000    	0.0000      	Open  	;
 P-1925          	I-AV-332        	J-557           	131.0590    	8.0000      	149.0000    	0.0000      	Open  	;
 P-1926          	I-AV-333        	J-993           	8.3990      	16.0000     	142.0000    	0.0000      	Open  	;
 P-1927          	I-AV-336        	J-557           	6.0590      	3.0000      	147.0000    	0.0000      	Open  	;
 P-1928          	I-AV-338        	J-559           	10.0900     	8.0000      	149.0000    	0.0000      	Open  	;
 P-1929          	I-AV-339        	J-560           	909.7500    	3.0000      	147.0000    	0.0000      	Open  	;
 P-193           	J-279           	I-Hollybush     	3216.5400   	4.0000      	147.0000    	0.0000      	Open  	;
 P-1930          	I-AV-340        	J-1218          	1164.2900   	3.0000      	147.0000    	0.0000      	Open  	;
 P-1931          	I-AV-341        	J-1217          	12.7100     	8.0000      	149.0000    	0.0000      	Open  	;
 P-1932          	I-AV-342        	J-1221          	20.5900     	8.0000      	149.0000    	0.0000      	Open  	;
 P-1933          	I-AV-343        	J-1054          	2.6400      	8.0000      	149.0000    	0.0000      	Open  	;
 P-1934          	O-AV-344        	J-235           	13.6400     	3.0000      	147.0000    	0.0000      	Open  	;
 P-1935          	I-AV-345        	J-130           	38.6190     	8.0000      	149.0000    	0.0000      	Open  	;
 P-1936          	I-AV-347        	J-781           	1.3990      	8.0000      	149.0000    	0.0000      	Open  	;
 P-1937          	I-AV-348        	J-781           	2.4000      	8.0000      	149.0000    	0.0000      	Open  	;
 P-1938          	I-AV-350        	J-166           	2489.0000   	16.0000     	142.0000    	0.0000      	Open  	;
 P-1939          	I-AV-351        	J-82            	2.8800      	4.0000      	147.0000    	0.0000      	Open  	;
 P-194           	J-324           	I-AV-218        	2.6190      	4.0000      	147.0000    	0.0000      	Open  	;
 P-1940          	J-55            	J-1210          	63.0200     	3.0000      	147.0000    	0.0000      	Open  	;
 P-1941          	O-AV-353        	J-1208          	0.4900      	3.0000      	147.0000    	0.0000      	Open  	;
 P-1942          	I-AV-354        	J-1125          	3.4300      	8.0000      	149.0000    	0.0000      	Open  	;
 P-1943          	I-AV-355        	O-AV-354        	3.5690      	8.0000      	149.0000    	0.0000      	Open  	;
 P-1944          	I-AV-356        	J-1200          	8.9090      	3.0000      	147.0000    	0.0000      	Open  	;
 P-1945          	O-AV-358        	J-22            	1940.3490   	8.0000      	149.0000    	0.0000      	Open  	;
 P-1946          	I-AV-359        	J-1200          	4.4290      	4.0000      	147.0000    	0.0000      	Open  	;
 P-1947          	I-AV-360        	J-1201          	54.1190     	4.0000      	147.0000    	0.0000      	Open  	;
 P-1948          	J-56            	O-AV-139        	696.7890    	8.0000      	149.0000    	0.0000      	Open  	;
 P-195           	J-326           	J-327           	770.2190    	4.0000      	147.0000    	0.0000      	Open  	;
 P-196           	J-37            	J-328           	1785.1700   	4.0000      	147.0000    	0.0000      	Open  	;
 P-197           	J-329           	J-330           	1449.0990   	4.0000      	147.0000    	0.0000      	Open  	;
 P-198           	J-9             	J-1397          	3190.1100   	12.0000     	150.0000    	0.0000      	Open  	;
 P-199           	J-80            	I-Wilson_Branch 	2378.1100   	4.0000      	147.0000    	0.0000      	Open  	;
 P-2             	J-3             	J-4             	834.8200    	8.0000      	149.0000    	0.0000      	Open  	;
 P-20            	J-37            	J-38            	1071.2390   	2.0000      	140.0000    	0.0000      	Open  	;
 P-200           	J-333           	J-334           	1885.1890   	4.0000      	147.0000    	0.0000      	Open  	;
 P-201           	J-335           	I-Trace_Caney   	4765.0200   	4.0000      	147.0000    	0.0000      	Open  	;
 P-202           	J-337           	J-338           	2568.6100   	4.0000      	147.0000    	0.0000      	Open  	;
 P-203           	J-339           	J-340           	3650.1290   	4.0000      	147.0000    	0.0000      	Open  	;
 P-204           	J-9             	J-1398          	84.3390     	12.0000     	150.0000    	0.0000      	Open  	;
 P-205           	J-153           	J-73            	56.7500     	12.0000     	150.0000    	0.0000      	Open  	;
 P-206           	J-345           	J-346           	2997.5100   	4.0000      	147.0000    	0.0000      	Open  	;
 P-207           	J-347           	J-348           	6172.4500   	4.0000      	147.0000    	0.0000      	Open  	;
 P-208           	J-349           	I-Slone_Fork_1  	76.7900     	4.0000      	147.0000    	0.0000      	Open  	;
 P-209           	J-311           	J-350           	4258.3300   	3.0000      	147.0000    	0.0000      	Open  	;
 P-21            	J-39            	J-40            	413.6000    	2.0000      	140.0000    	0.0000      	Open  	;
 P-210           	J-128           	O-AV-293        	5.4400      	3.0000      	147.0000    	0.0000      	Open  	;
 P-211           	J-118           	I-AV-302        	2.3800      	3.0000      	147.0000    	0.0000      	Open  	;
 P-212           	J-353           	J-354           	2239.3500   	3.0000      	147.0000    	0.0000      	Open  	;
 P-213           	J-69            	J-355           	818.8690    	3.0000      	147.0000    	0.0000      	Open  	;
 P-214           	J-338           	J-356           	410.1090    	3.0000      	147.0000    	0.0000      	Open  	;
 P-215           	J-285           	J-357           	2416.5000   	3.0000      	147.0000    	0.0000      	Open  	;
 P-216           	J-338           	I-Kelly_Fork_1  	2374.4890   	3.0000      	147.0000    	0.0000      	Open  	;
 P-217           	J-269           	J-666           	74.4800     	12.0000     	150.0000    	0.0000      	Open  	;
 P-218           	J-21            	O-AV-318        	2.3090      	3.0000      	147.0000    	0.0000      	Open  	;
 P-219           	J-362           	J-363           	3558.3790   	3.0000      	147.0000    	0.0000      	Open  	;
 P-22            	J-41            	J-42            	588.1400    	2.0000      	140.0000    	0.0000      	Open  	;
 P-220           	J-364           	I-AV-60         	6.9000      	3.0000      	147.0000    	0.0000      	Open  	;
 P-221           	J-366           	I-AV-56         	5.7890      	3.0000      	147.0000    	0.0000      	Open  	;
 P-222           	J-93            	J-368           	399.1000    	3.0000      	147.0000    	0.0000      	Open  	;
 P-223           	J-318           	J-369           	2883.0200   	3.0000      	147.0000    	0.0000      	Open  	;
 P-224           	J-370           	J-371           	2459.0700   	3.0000      	147.0000    	0.0000      	Open  	;
 P-225           	J-277           	J-372           	221.1690    	3.0000      	147.0000    	0.0000      	Open  	;
 P-226           	J-111           	I-AV-239        	1269.3590   	3.0000      	147.0000    	0.0000      	Open  	;
 P-227           	J-374           	J-375           	4160.5890   	2.0000      	140.0000    	0.0000      	Open  	;
 P-228           	J-138           	J-376           	844.9190    	2.0000      	140.0000    	0.0000      	Open  	;
 P-229           	J-320           	J-377           	822.2290    	2.0000      	140.0000    	0.0000      	Open  	;
 P-23            	J-43            	J-44            	384.9700    	2.0000      	140.0000    	0.0000      	Open  	;
 P-230           	J-221           	J-378           	410.5290    	2.0000      	140.0000    	0.0000      	Open  	;
 P-231           	J-379           	J-380           	803.3800    	2.0000      	140.0000    	0.0000      	Open  	;
 P-232           	J-280           	J-381           	624.3490    	2.0000      	140.0000    	0.0000      	Open  	;
 P-233           	J-142           	I-AV-49         	8.6190      	2.0000      	140.0000    	0.0000      	Open  	;
 P-234           	J-133           	J-383           	837.7100    	2.0000      	140.0000    	0.0000      	Open  	;
 P-235           	J-84            	J-384           	916.9500    	2.0000      	140.0000    	0.0000      	Open  	;
 P-236           	J-120           	J-385           	307.0000    	2.0000      	140.0000    	0.0000      	Open  	;
 P-237           	J-123           	J-386           	639.9890    	2.0000      	140.0000    	0.0000      	Open  	;
 P-238           	J-119           	J-387           	1583.5890   	2.0000      	140.0000    	0.0000      	Open  	;
 P-239           	J-188           	J-388           	871.2500    	2.0000      	140.0000    	0.0000      	Open  	;
 P-24            	J-45            	J-46            	445.7900    	2.0000      	140.0000    	0.0000      	Open  	;
 P-240           	J-115           	J-389           	2380.9290   	2.0000      	140.0000    	0.0000      	Open  	;
 P-241           	J-197           	J-390           	1713.3490   	2.0000      	140.0000    	0.0000      	Open  	;
 P-242           	J-391           	J-392           	4112.8700   	2.0000      	140.0000    	0.0000      	Open  	;
 P-243           	J-225           	J-393           	1974.3190   	2.0000      	140.0000    	0.0000      	Open  	;
 P-244           	J-36            	J-394           	2277.9190   	1.0000      	140.0000    	0.0000      	Open  	;
 P-245           	J-395           	J-396           	1480.0000   	8.0000      	140.0000    	0.0000      	Open  	;
 P-246           	J-397           	J-398           	6119.8590   	12.0000     	142.0000    	0.0000      	Open  	;
 P-247           	J-400           	O-AV-92         	1739.4790   	6.0000      	149.0000    	0.0000      	Open  	;
 P-248           	J-401           	J-402           	2528.6790   	6.0000      	149.0000    	0.0000      	Open  	;
 P-249           	J-402           	J-1722          	3708.6100   	6.0000      	149.0000    	0.0000      	Open  	;
 P-25            	J-49            	O-AV-235        	629.2600    	12.0000     	150.0000    	0.0000      	Open  	;
 P-250           	J-404           	J-405           	218.0200    	6.0000      	142.0000    	0.0000      	Open  	;
 P-251           	J-406           	J-407           	926.7000    	3.0000      	147.0000    	0.0000      	Open  	;
 P-252           	J-409           	J-54            	2985.8990   	8.0000      	149.0000    	0.0000      	Open  	;
 P-253           	J-410           	J-411           	326.5290    	3.0000      	147.0000    	0.0000      	Open  	;
 P-254           	J-412           	O-AV-206        	1.8400      	4.0000      	147.0000    	0.0000      	Open  	;
 P-255           	J-414           	J-415           	1625.6890   	3.0000      	147.0000    	0.0000      	Open  	;
 P-256           	J-416           	J-417           	1301.9390   	8.0000      	149.0000    	0.0000      	Open  	;
 P-257           	J-418           	J-419           	420.4500    	3.0000      	147.0000    	0.0000      	Open  	;
 P-258           	J-420           	I-Knob_Botttom  	1991.5690   	4.0000      	147.0000    	0.0000      	Open  	;
 P-259           	J-65            	O-AV-183        	171.9490    	12.0000     	142.0000    	0.0000      	Open  	;
 P-26            	J-49            	I-AV-246        	1638.6400   	12.0000     	150.0000    	0.0000      	Open  	;
 P-260           	J-422           	J-423           	2264.2600   	8.0000      	149.0000    	0.0000      	Open  	;
 P-261           	J-424           	J-425           	1914.9200   	6.0000      	149.0000    	0.0000      	Open  	;
 P-262           	J-403           	J-239           	9.8990      	8.0000      	149.0000    	0.0000      	Open  	;
 P-263           	J-428           	J-429           	3911.2500   	8.0000      	149.0000    	0.0000      	Open  	;
 P-264           	J-430           	J-431           	856.5900    	3.0000      	147.0000    	0.0000      	Open  	;
 P-265           	J-432           	O-AV-26         	3.2690      	3.0000      	147.0000    	0.0000      	Open  	;
 P-266           	J-434           	J-438           	1263.2600   	8.0000      	149.0000    	0.0000      	Open  	;
 P-267           	J-436           	J-437           	788.9090    	3.0000      	147.0000    	0.0000      	Open  	;
 P-268           	J-438           	J-439           	371.5100    	3.0000      	147.0000    	0.0000      	Open  	;
 P-269           	J-143           	O-AV-48         	4158.4900   	8.0000      	149.0000    	0.0000      	Open  	;
 P-27            	J-51            	J-52            	136.3690    	12.0000     	150.0000    	0.0000      	Open  	;
 P-271           	J-442           	J-443           	863.7390    	4.0000      	147.0000    	0.0000      	Open  	;
 P-272           	J-444           	J-445           	2255.4090   	8.0000      	149.0000    	0.0000      	Open  	;
 P-273           	J-446           	J-442           	194.7200    	8.0000      	149.0000    	0.0000      	Open  	;
 P-274           	J-448           	I-AV-197        	1.4600      	4.0000      	147.0000    	0.0000      	Open  	;
 P-275           	J-450           	O-AV-192        	2.2000      	4.0000      	147.0000    	0.0000      	Open  	;
 P-276           	J-452           	J-453           	475.0890    	4.0000      	147.0000    	0.0000      	Open  	;
 P-277           	J-444           	O-AV-196        	2.6800      	6.0000      	149.0000    	0.0000      	Open  	;
 P-278           	J-6             	I-AV-52         	22.5900     	6.0000      	149.0000    	0.0000      	Open  	;
 P-279           	J-348           	J-456           	1043.2500   	4.0000      	147.0000    	0.0000      	Open  	;
 P-28            	O-HWY_80a       	O-AV-12         	339.9500    	6.0000      	149.0000    	0.0000      	Open  	;
 P-280           	J-174           	J-457           	1238.1700   	8.0000      	149.0000    	0.0000      	Open  	;
 P-281           	J-458           	J-459           	1547.4790   	4.0000      	147.0000    	0.0000      	Open  	;
 P-282           	J-404           	O-AV-477        	1503.7900   	6.0000      	142.0000    	0.0000      	Open  	;
 P-283           	J-461           	O-Possum_trot   	807.8900    	8.0000      	149.0000    	0.0000      	Open  	;
 P-284           	J-463           	J-464           	1892.5300   	16.0000     	142.0000    	0.0000      	Open  	;
 P-285           	J-465           	J-466           	67.0290     	8.0000      	149.0000    	0.0000      	Open  	;
 P-286           	J-336           	J-107           	33.9190     	4.0000      	147.0000    	0.0000      	Open  	;
 P-287           	J-323           	J-79            	21.5790     	4.0000      	147.0000    	0.0000      	Open  	;
 P-289           	J-469           	J-20            	1268.0790   	6.0000      	149.0000    	0.0000      	Open  	;
 P-29            	O-Kelly_Fork    	O-AV-86         	24.5200     	4.0000      	147.0000    	0.0000      	Open  	;
 P-291           	J-218           	O-AV-345        	2.0290      	8.0000      	149.0000    	0.0000      	Open  	;
 P-292           	J-218           	J-234           	105.7300    	8.0000      	149.0000    	0.0000      	Open  	;
 P-293           	J-217           	J-472           	1850.6400   	8.0000      	149.0000    	0.0000      	Open  	;
 P-294           	J-472           	J-473           	2655.0300   	8.0000      	149.0000    	0.0000      	Open  	;
 P-295           	J-473           	J-474           	2728.5500   	8.0000      	149.0000    	0.0000      	Open  	;
 P-296           	J-476           	O-AV-193        	2081.2190   	8.0000      	149.0000    	0.0000      	Open  	;
 P-297           	J-476           	O-AV-194        	4.4600      	8.0000      	149.0000    	0.0000      	Open  	;
 P-298           	J-6             	J-1580          	2.3090      	6.0000      	149.0000    	0.0000      	Open  	;
 P-299           	J-478           	O-AV-195        	4.9000      	2.0000      	140.0000    	0.0000      	Open  	;
 P-3             	J-5             	J-1188          	2208.4890   	8.0000      	149.0000    	0.0000      	Open  	;
 P-30            	J-57            	J-58            	1844.5000   	12.0000     	150.0000    	0.0000      	Open  	;
 P-300           	J-479           	J-480           	1.0090      	2.0000      	140.0000    	0.0000      	Open  	;
 P-301           	J-478           	J-444           	1525.3800   	8.0000      	149.0000    	0.0000      	Open  	;
 P-302           	J-481           	J-448           	24.6700     	8.0000      	149.0000    	0.0000      	Open  	;
 P-303           	J-483           	O-AV-224        	132.1390    	12.0000     	150.0000    	0.0000      	Open  	;
 P-304           	J-379           	J-374           	868.2000    	8.0000      	149.0000    	0.0000      	Open  	;
 P-305           	J-379           	O-AV-136        	39.2790     	8.0000      	149.0000    	0.0000      	Open  	;
 P-306           	J-765           	J-772           	9.0690      	6.0000      	149.0000    	0.0000      	Open  	;
 P-307           	J-12            	O-AV-241        	41.7700     	3.0000      	137.0000    	0.0000      	Open  	;
 P-308           	J-10            	J-256           	1624.8800   	8.0000      	149.0000    	0.0000      	Open  	;
 P-309           	J-82            	J-487           	1211.5300   	4.0000      	147.0000    	0.0000      	Open  	;
 P-31            	J-74            	O-AV-220        	285.9290    	12.0000     	142.0000    	0.0000      	Open  	;
 P-310           	J-82            	J-488           	479.5890    	4.0000      	147.0000    	0.0000      	Open  	;
 P-311           	J-487           	J-489           	16.1900     	4.0000      	147.0000    	0.0000      	Open  	;
 P-312           	J-488           	J-490           	2.5990      	4.0000      	147.0000    	0.0000      	Open  	;
 P-313           	J-235           	J-81            	818.3300    	8.0000      	149.0000    	0.0000      	Open  	;
 P-314           	J-491           	I-AV-344        	259.1600    	3.0000      	147.0000    	0.0000      	Open  	;
 P-315           	J-492           	J-491           	5.5590      	3.0000      	147.0000    	0.0000      	Open  	;
 P-316           	J-493           	J-494           	281.6600    	3.0000      	137.0000    	0.0000      	Open  	;
 P-317           	J-496           	O-AV-478        	259.6600    	6.0000      	142.0000    	0.0000      	Open  	;
 P-318           	J-322           	J-497           	2.0000      	6.0000      	149.0000    	0.0000      	Open  	;
 P-319           	J-101           	J-102           	294.0190    	4.0000      	147.0000    	0.0000      	Open  	;
 P-32            	J-61            	J-62            	2331.5500   	12.0000     	142.0000    	0.0000      	Open  	;
 P-320           	J-26            	J-293           	662.2190    	6.0000      	149.0000    	0.0000      	Open  	;
 P-322           	J-12            	J-858           	3.8490      	3.0000      	137.0000    	0.0000      	Open  	;
 P-323           	J-508           	O-AV-111        	300.7300    	8.0000      	149.0000    	0.0000      	Open  	;
 P-324           	J-15            	J-154           	1100.0300   	3.0000      	137.0000    	0.0000      	Open  	;
 P-325           	J-15            	J-1168          	23.9300     	3.0000      	137.0000    	0.0000      	Open  	;
 P-326           	J-1083          	J-1085          	4.0100      	3.0000      	137.0000    	0.0000      	Open  	;
 P-327           	J-20            	J-786           	1309.0690   	6.0000      	149.0000    	0.0000      	Open  	;
 P-328           	J-24            	J-9             	13252.2300  	12.0000     	150.0000    	0.0000      	Open  	;
 P-329           	J-508           	J-509           	85.6600     	8.0000      	149.0000    	0.0000      	Open  	;
 P-33            	J-63            	J-64            	2417.3000   	12.0000     	150.0000    	0.0000      	Open  	;
 P-330           	J-167           	J-510           	3521.9190   	16.0000     	142.0000    	0.0000      	Open  	;
 P-331           	J-510           	O-AV-320        	5.1900      	16.0000     	142.0000    	0.0000      	Open  	;
 P-332           	J-24            	J-787           	18.3990     	12.0000     	150.0000    	0.0000      	Open  	;
 P-333           	J-513           	I-AV-191        	19348.3200  	16.0000     	142.0000    	0.0000      	Open  	;
 P-334           	J-515           	J-516           	1007.6790   	6.0000      	149.0000    	0.0000      	Open  	;
 P-335           	J-516           	J-517           	295.1000    	6.0000      	149.0000    	0.0000      	Open  	;
 P-336           	J-518           	O-AV-35         	828.6400    	8.0000      	149.0000    	0.0000      	Open  	;
 P-337           	J-520           	J-1193          	546.8900    	8.0000      	149.0000    	0.0000      	Open  	;
 P-338           	J-25            	J-26            	505.0490    	6.0000      	149.0000    	0.0000      	Open  	;
 P-339           	J-524           	J-522           	1712.0690   	8.0000      	149.0000    	0.0000      	Open  	;
 P-34            	J-65            	J-66            	2400.0200   	12.0000     	142.0000    	0.0000      	Open  	;
 P-340           	J-525           	J-524           	1448.0000   	8.0000      	149.0000    	0.0000      	Open  	;
 P-341           	J-526           	J-527           	57.9190     	8.0000      	149.0000    	0.0000      	Open  	;
 P-342           	J-51            	J-528           	103.8190    	12.0000     	150.0000    	0.0000      	Open  	;
 P-343           	J-528           	O-AV-257        	1105.0790   	6.0000      	149.0000    	0.0000      	Open  	;
 P-344           	J-443           	J-1277          	4542.2000   	12.0000     	150.0000    	0.0000      	Open  	;
 P-345           	J-74            	J-68            	523.6690    	4.0000      	147.0000    	0.0000      	Open  	;
 P-346           	J-68            	J-530           	540.5990    	4.0000      	147.0000    	0.0000      	Open  	;
 P-347           	J-530           	J-531           	867.1900    	4.0000      	147.0000    	0.0000      	Open  	;
 P-348           	J-1285          	J-454           	3602.4090   	12.0000     	150.0000    	0.0000      	Open  	;
 P-349           	J-534           	J-531           	3.3590      	4.0000      	147.0000    	0.0000      	Open  	;
 P-35            	J-67            	O-AV-215        	285.6000    	2.0000      	129.0000    	0.0000      	Open  	;
 P-350           	J-531           	J-77            	1.1790      	4.0000      	147.0000    	0.0000      	Open  	;
 P-351           	J-535           	J-536           	145.9600    	4.0000      	147.0000    	0.0000      	Open  	;
 P-352           	J-258           	O-AV-125        	75.8300     	4.0000      	147.0000    	0.0000      	Open  	;
 P-353           	J-609           	O-AV-126        	353.2690    	4.0000      	147.0000    	0.0000      	Open  	;
 P-354           	J-540           	J-187           	36.3690     	12.0000     	142.0000    	0.0000      	Open  	;
 P-355           	J-541           	J-148           	553.2800    	8.0000      	149.0000    	0.0000      	Open  	;
 P-356           	J-541           	O-AV-144        	5.5500      	8.0000      	149.0000    	0.0000      	Open  	;
 P-357           	J-1287          	J-1709          	4898.9590   	2.0000      	129.0000    	0.0000      	Open  	;
 P-358           	J-278           	J-96            	8980.2300   	4.0000      	147.0000    	0.0000      	Open  	;
 P-359           	J-322           	J-1287          	6553.9100   	6.0000      	149.0000    	0.0000      	Open  	;
 P-36            	J-64            	J-69            	1044.2390   	12.0000     	150.0000    	0.0000      	Open  	;
 P-360           	J-545           	J-546           	4.9290      	8.0000      	149.0000    	0.0000      	Open  	;
 P-361           	J-547           	I-AV-29         	4.0190      	8.0000      	149.0000    	0.0000      	Open  	;
 P-362           	J-1694          	J-86            	4851.6290   	6.0000      	149.0000    	0.0000      	Open  	;
 P-363           	J-549           	J-550           	1305.3290   	8.0000      	149.0000    	0.0000      	Open  	;
 P-364           	J-551           	J-72            	272.3800    	8.0000      	149.0000    	0.0000      	Open  	;
 P-365           	J-1301          	J-1713          	4983.0290   	6.0000      	149.0000    	0.0000      	Open  	;
 P-366           	J-550           	J-553           	1854.2090   	8.0000      	149.0000    	0.0000      	Open  	;
 P-367           	J-554           	J-555           	468.7500    	8.0000      	149.0000    	0.0000      	Open  	;
 P-368           	J-556           	O-AV-336        	426.5590    	3.0000      	147.0000    	0.0000      	Open  	;
 P-369           	J-1714          	J-1313          	7308.1290   	6.0000      	149.0000    	0.0000      	Open  	;
 P-37            	O-Kelly_Fork_1  	J-358           	69.8090     	3.0000      	147.0000    	0.0000      	Open  	;
 P-370           	J-559           	O-AV-339        	15.6300     	3.0000      	147.0000    	0.0000      	Open  	;
 P-371           	J-155           	O-AV-327        	92.5690     	8.0000      	149.0000    	0.0000      	Open  	;
 P-372           	J-562           	J-14            	559.9000    	6.0000      	149.0000    	0.0000      	Open  	;
 P-373           	J-563           	J-564           	500.0400    	6.0000      	149.0000    	0.0000      	Open  	;
 P-374           	J-562           	J-565           	576.3090    	6.0000      	149.0000    	0.0000      	Open  	;
 P-375           	J-186           	J-567           	597.0390    	12.0000     	142.0000    	0.0000      	Open  	;
 P-376           	J-567           	O-AV-418        	5.9090      	12.0000     	142.0000    	0.0000      	Open  	;
 P-377           	J-933           	J-1455          	7494.6890   	6.0000      	149.0000    	0.0000      	Open  	;
 P-378           	J-569           	J-570           	357.1190    	3.0000      	137.0000    	0.0000      	Open  	;
 P-379           	J-571           	J-572           	1072.5400   	3.0000      	137.0000    	0.0000      	Open  	;
 P-38            	O-Knob_Botttom  	J-345           	103.5100    	4.0000      	147.0000    	0.0000      	Open  	;
 P-380           	J-925           	J-934           	4058.1290   	6.0000      	149.0000    	0.0000      	Open  	;
 P-381           	J-571           	J-575           	350.2690    	3.0000      	137.0000    	0.0000      	Open  	;
 P-382           	J-570           	O-AV-421        	196.3600    	3.0000      	137.0000    	0.0000      	Open  	;
 P-383           	J-576           	J-577           	1252.2700   	12.0000     	142.0000    	0.0000      	Open  	;
 P-384           	J-576           	I-AV-422        	11.4490     	12.0000     	142.0000    	0.0000      	Open  	;
 P-385           	J-577           	O-AV-424        	4.6900      	12.0000     	142.0000    	0.0000      	Open  	;
 P-386           	J-1472          	J-131           	6977.3900   	6.0000      	149.0000    	0.0000      	Open  	;
 P-387           	J-659           	J-1425          	5761.7090   	6.0000      	149.0000    	0.0000      	Open  	;
 P-388           	J-1133          	J-1733          	2726.4190   	6.0000      	149.0000    	0.0000      	Open  	;
 P-389           	J-127           	J-986           	3374.7800   	6.0000      	149.0000    	0.0000      	Open  	;
 P-39            	J-74            	O-AV-214        	1441.1990   	12.0000     	142.0000    	0.0000      	Open  	;
 P-390           	J-586           	J-587           	626.5300    	3.0000      	137.0000    	0.0000      	Open  	;
 P-391           	J-588           	O-AV-287        	1147.7090   	12.0000     	142.0000    	0.0000      	Open  	;
 P-392           	J-590           	O-AV-115        	0.4490      	12.0000     	142.0000    	0.0000      	Open  	;
 P-393           	J-591           	J-592           	572.4500    	3.0000      	137.0000    	0.0000      	Open  	;
 P-394           	J-1672          	O-AV-51         	6092.9500   	3.0000      	147.0000    	0.0000      	Open  	;
 P-395           	J-589           	J-231           	930.8900    	12.0000     	142.0000    	0.0000      	Open  	;
 P-396           	J-596           	O-AV-337        	791.9000    	12.0000     	142.0000    	0.0000      	Open  	;
 P-397           	J-653           	J-1357          	1515.4490   	3.0000      	147.0000    	0.0000      	Open  	;
 P-398           	J-1399          	J-1267          	12289.7690  	3.0000      	147.0000    	0.0000      	Open  	;
 P-399           	J-1267          	J-734           	4148.1400   	3.0000      	147.0000    	0.0000      	Open  	;
 P-4             	J-7             	J-8             	1373.5300   	8.0000      	149.0000    	0.0000      	Open  	;
 P-40            	J-76            	J-620           	1351.9490   	4.0000      	147.0000    	0.0000      	Open  	;
 P-400           	J-600           	I-AV-147        	10.3900     	6.0000      	149.0000    	0.0000      	Open  	;
 P-401           	J-601           	J-602           	1463.7390   	8.0000      	149.0000    	0.0000      	Open  	;
 P-402           	J-603           	O-AV-401        	17.6390     	8.0000      	149.0000    	0.0000      	Open  	;
 P-403           	J-734           	J-514           	24128.4490  	3.0000      	147.0000    	0.0000      	Open  	;
 P-404           	J-244           	J-601           	10549.1100  	8.0000      	149.0000    	0.0000      	Open  	;
 P-405           	J-1451          	J-1648          	4156.3100   	3.0000      	147.0000    	0.0000      	Open  	;
 P-406           	J-1653          	J-1218          	3657.9790   	3.0000      	147.0000    	0.0000      	Open  	;
 P-407           	J-256           	O-AV-130        	139.4400    	4.0000      	147.0000    	0.0000      	Open  	;
 P-408           	J-1222          	J-1223          	2080.8000   	3.0000      	147.0000    	0.0000      	Open  	;
 P-409           	J-85            	J-1434          	7018.1290   	3.0000      	147.0000    	0.0000      	Open  	;
 P-41            	J-77            	I-AV-216        	1.4190      	4.0000      	147.0000    	0.0000      	Open  	;
 P-410           	J-360           	J-1668          	5384.6890   	3.0000      	147.0000    	0.0000      	Open  	;
 P-411           	J-610           	J-611           	1.2100      	4.0000      	147.0000    	0.0000      	Open  	;
 P-412           	J-612           	J-613           	2316.8790   	6.0000      	149.0000    	0.0000      	Open  	;
 P-413           	J-1450          	J-1652          	6507.7900   	3.0000      	147.0000    	0.0000      	Open  	;
 P-414           	J-50            	J-1669          	5946.1290   	3.0000      	147.0000    	0.0000      	Open  	;
 P-415           	J-617           	J-165           	589.4790    	8.0000      	149.0000    	0.0000      	Open  	;
 P-416           	J-188           	J-618           	985.1300    	12.0000     	142.0000    	0.0000      	Open  	;
 P-417           	J-1669          	J-352           	3640.5300   	3.0000      	147.0000    	0.0000      	Open  	;
 P-418           	J-109           	J-619           	7.5790      	12.0000     	142.0000    	0.0000      	Open  	;
 P-419           	J-619           	O-AV-303        	3.8490      	12.0000     	142.0000    	0.0000      	Open  	;
 P-42            	J-79            	O-AV-153        	829.9600    	4.0000      	147.0000    	0.0000      	Open  	;
 P-420           	J-39            	J-620           	1383.9000   	4.0000      	147.0000    	0.0000      	Open  	;
 P-421           	J-621           	J-622           	814.1500    	12.0000     	142.0000    	0.0000      	Open  	;
 P-422           	J-623           	O-AV-200        	118.5100    	12.0000     	142.0000    	0.0000      	Open  	;
 P-423           	J-394           	J-360           	4922.2000   	3.0000      	147.0000    	0.0000      	Open  	;
 P-424           	J-625           	J-626           	1.4400      	12.0000     	142.0000    	0.0000      	Open  	;
 P-425           	J-778           	J-125           	3069.4690   	12.0000     	142.0000    	0.0000      	Open  	;
 P-426           	J-628           	J-629           	3465.5400   	12.0000     	142.0000    	0.0000      	Open  	;
 P-427           	J-629           	J-630           	2724.6590   	12.0000     	142.0000    	0.0000      	Open  	;
 P-428           	J-1185          	J-1705          	6409.2900   	3.0000      	137.0000    	0.0000      	Open  	;
 P-429           	J-633           	O-AV-127        	1450.3900   	12.0000     	142.0000    	0.0000      	Open  	;
 P-43            	J-81            	O-AV-351        	3940.7800   	4.0000      	147.0000    	0.0000      	Open  	;
 P-430           	J-1705          	J-1704          	2279.7600   	3.0000      	137.0000    	0.0000      	Open  	;
 P-431           	J-637           	J-638           	860.7100    	3.0000      	147.0000    	0.0000      	Open  	;
 P-432           	J-1704          	J-841           	8830.5190   	3.0000      	137.0000    	0.0000      	Open  	;
 P-433           	J-285           	O-AV-75         	909.4090    	8.0000      	149.0000    	0.0000      	Open  	;
 P-434           	J-83            	O-AV-76         	165.8390    	8.0000      	149.0000    	0.0000      	Open  	;
 P-435           	J-83            	O-AV-78         	18.3600     	6.0000      	149.0000    	0.0000      	Open  	;
 P-436           	J-1170          	J-1352          	4390.3990   	3.0000      	137.0000    	0.0000      	Open  	;
 P-437           	J-282           	O-AV-80         	0.3600      	6.0000      	149.0000    	0.0000      	Open  	;
 P-438           	J-1352          	J-1685          	5281.6890   	3.0000      	137.0000    	0.0000      	Open  	;
 P-44            	J-83            	O-AV-81         	6.3400      	4.0000      	147.0000    	0.0000      	Open  	;
 P-440           	J-647           	J-517           	1068.6990   	6.0000      	149.0000    	0.0000      	Open  	;
 P-441           	J-1685          	J-1164          	1922.1190   	3.0000      	137.0000    	0.0000      	Open  	;
 P-442           	J-302           	O-AV-274        	20.9690     	8.0000      	149.0000    	0.0000      	Open  	;
 P-443           	J-330           	J-459           	4843.0290   	12.0000     	150.0000    	0.0000      	Open  	;
 P-444           	J-650           	J-651           	1893.7390   	8.0000      	149.0000    	0.0000      	Open  	;
 P-445           	J-651           	J-213           	3.1800      	8.0000      	149.0000    	0.0000      	Open  	;
 P-446           	J-173           	I-AV-121        	2.9300      	12.0000     	150.0000    	0.0000      	Open  	;
 P-447           	J-173           	J-653           	2375.2900   	3.0000      	147.0000    	0.0000      	Open  	;
 P-448           	J-144           	O-AV-55         	3.5590      	8.0000      	149.0000    	0.0000      	Open  	;
 P-449           	J-145           	J-275           	377.1790    	8.0000      	149.0000    	0.0000      	Open  	;
 P-45            	J-84            	J-85            	1831.7090   	4.0000      	147.0000    	0.0000      	Open  	;
 P-450           	J-275           	J-232           	4.7690      	8.0000      	149.0000    	0.0000      	Open  	;
 P-451           	J-655           	J-362           	1662.5890   	6.0000      	149.0000    	0.0000      	Open  	;
 P-452           	J-276           	J-655           	2.7100      	6.0000      	149.0000    	0.0000      	Open  	;
 P-453           	J-362           	J-656           	1184.8490   	6.0000      	149.0000    	0.0000      	Open  	;
 P-454           	J-656           	J-657           	2.5990      	6.0000      	149.0000    	0.0000      	Open  	;
 P-455           	J-657           	J-288           	802.1190    	6.0000      	149.0000    	0.0000      	Open  	;
 P-456           	J-801           	J-797           	7754.1690   	12.0000     	150.0000    	0.0000      	Open  	;
 P-457           	J-547           	J-659           	347.6000    	8.0000      	149.0000    	0.0000      	Open  	;
 P-458           	J-659           	J-660           	2754.1390   	8.0000      	149.0000    	0.0000      	Open  	;
 P-459           	J-661           	J-660           	1820.0300   	3.0000      	147.0000    	0.0000      	Open  	;
 P-46            	J-86            	J-87            	4696.1800   	4.0000      	147.0000    	0.0000      	Open  	;
 P-460           	J-660           	O-AV-41         	14.8690     	8.0000      	149.0000    	0.0000      	Open  	;
 P-461           	J-255           	O-AV-64         	551.1500    	8.0000      	149.0000    	0.0000      	Open  	;
 P-462           	J-392           	J-802           	4208.7200   	2.0000      	140.0000    	0.0000      	Open  	;
 P-463           	J-1375          	J-870           	5819.5890   	12.0000     	150.0000    	0.0000      	Open  	;
 P-464           	J-664           	J-665           	485.0190    	3.0000      	147.0000    	0.0000      	Open  	;
 P-465           	J-664           	J-428           	77.3300     	8.0000      	149.0000    	0.0000      	Open  	;
 P-466           	J-666           	J-667           	252.2400    	8.0000      	149.0000    	0.0000      	Open  	;
 P-467           	J-667           	O-AV-446        	5.1300      	8.0000      	149.0000    	0.0000      	Open  	;
 P-468           	J-369           	J-381           	4948.6400   	12.0000     	150.0000    	0.0000      	Open  	;
 P-469           	J-11            	O-AV-388        	3.0490      	8.0000      	149.0000    	0.0000      	Open  	;
 P-470           	J-786           	J-28            	2286.2900   	12.0000     	150.0000    	0.0000      	Open  	;
 P-471           	J-617           	J-162           	495.6900    	3.0000      	147.0000    	0.0000      	Open  	;
 P-472           	J-617           	J-673           	1428.4390   	8.0000      	149.0000    	0.0000      	Open  	;
 P-473           	J-673           	J-47            	4.8200      	8.0000      	149.0000    	0.0000      	Open  	;
 P-474           	J-420           	J-675           	231.3390    	8.0000      	149.0000    	0.0000      	Open  	;
 P-475           	J-28            	J-365           	2051.8300   	12.0000     	150.0000    	0.0000      	Open  	;
 P-476           	J-677           	J-420           	897.9290    	8.0000      	149.0000    	0.0000      	Open  	;
 P-477           	J-678           	J-677           	910.5300    	8.0000      	149.0000    	0.0000      	Open  	;
 P-478           	J-4             	J-678           	595.0490    	8.0000      	149.0000    	0.0000      	Open  	;
 P-479           	J-679           	J-3             	234.7100    	8.0000      	149.0000    	0.0000      	Open  	;
 P-48            	J-90            	J-91            	2008.8900   	4.0000      	147.0000    	0.0000      	Open  	;
 P-480           	J-680           	J-679           	896.9690    	8.0000      	149.0000    	0.0000      	Open  	;
 P-481           	J-681           	I-AV-159        	9.8100      	3.0000      	147.0000    	0.0000      	Open  	;
 P-482           	J-681           	O-AV-160        	44.0690     	3.0000      	147.0000    	0.0000      	Open  	;
 P-483           	J-681           	J-113           	637.3490    	3.0000      	147.0000    	0.0000      	Open  	;
 P-484           	J-392           	J-684           	3.2100      	2.0000      	140.0000    	0.0000      	Open  	;
 P-485           	J-685           	O-AV-436        	40.1100     	6.0000      	149.0000    	0.0000      	Open  	;
 P-486           	J-28            	J-363           	2133.2500   	12.0000     	150.0000    	0.0000      	Open  	;
 P-487           	J-1367          	J-367           	1624.3190   	12.0000     	150.0000    	0.0000      	Open  	;
 P-488           	J-527           	J-690           	1349.1500   	8.0000      	149.0000    	0.0000      	Open  	;
 P-489           	J-690           	J-691           	9.3990      	8.0000      	149.0000    	0.0000      	Open  	;
 P-49            	J-92            	O-AV-107        	7.5190      	4.0000      	147.0000    	0.0000      	Open  	;
 P-490           	J-691           	J-692           	1804.4590   	8.0000      	149.0000    	0.0000      	Open  	;
 P-491           	J-692           	J-693           	3.4900      	8.0000      	149.0000    	0.0000      	Open  	;
 P-492           	J-693           	J-694           	440.5190    	8.0000      	149.0000    	0.0000      	Open  	;
 P-493           	J-694           	J-695           	13.2390     	8.0000      	149.0000    	0.0000      	Open  	;
 P-494           	J-695           	J-696           	2637.7600   	8.0000      	149.0000    	0.0000      	Open  	;
 P-495           	J-698           	O-AV-42         	1317.4590   	8.0000      	149.0000    	0.0000      	Open  	;
 P-496           	J-598           	J-268           	122.4300    	12.0000     	142.0000    	0.0000      	Open  	;
 P-497           	J-702           	J-238           	1510.4890   	3.0000      	137.0000    	0.0000      	Open  	;
 P-498           	J-390           	I-AV-252        	1249.3590   	12.0000     	150.0000    	0.0000      	Open  	;
 P-499           	J-899           	J-371           	2312.0400   	12.0000     	150.0000    	0.0000      	Open  	;
 P-5             	O-1410_Pump     	O-AV-162        	35.0400     	8.0000      	149.0000    	0.0000      	Open  	;
 P-50            	J-93            	J-94            	897.9600    	4.0000      	147.0000    	0.0000      	Open  	;
 P-500           	J-703           	J-704           	1484.6500   	12.0000     	142.0000    	0.0000      	Open  	;
 P-501           	J-1007          	J-112           	1599.9490   	3.0000      	147.0000    	0.0000      	Open  	;
 P-502           	J-705           	O-AV-367        	1157.7290   	12.0000     	142.0000    	0.0000      	Open  	;
 P-503           	J-259           	J-708           	529.5390    	3.0000      	137.0000    	0.0000      	Open  	;
 P-504           	J-1557          	J-1020          	2702.7290   	3.0000      	147.0000    	0.0000      	Open  	;
 P-505           	J-710           	J-711           	1102.7500   	6.0000      	149.0000    	0.0000      	Open  	;
 P-506           	J-712           	J-710           	4.4890      	6.0000      	149.0000    	0.0000      	Open  	;
 P-507           	J-515           	J-713           	674.7600    	6.0000      	149.0000    	0.0000      	Open  	;
 P-51            	J-96            	O-AV-219        	3689.8700   	4.0000      	147.0000    	0.0000      	Open  	;
 P-510           	J-716           	J-715           	6.4490      	6.0000      	149.0000    	0.0000      	Open  	;
 P-511           	J-717           	J-716           	506.6400    	6.0000      	149.0000    	0.0000      	Open  	;
 P-512           	J-517           	J-717           	1081.1800   	6.0000      	149.0000    	0.0000      	Open  	;
 P-513           	J-334           	J-86            	4435.9190   	3.0000      	147.0000    	0.0000      	Open  	;
 P-514           	J-1380          	O-AV-234        	535.4290    	12.0000     	142.0000    	0.0000      	Open  	;
 P-515           	J-1546          	J-375           	2758.9790   	3.0000      	147.0000    	0.0000      	Open  	;
 P-516           	J-1555          	J-373           	3373.3700   	3.0000      	147.0000    	0.0000      	Open  	;
 P-517           	J-725           	J-723           	2.4100      	12.0000     	142.0000    	0.0000      	Open  	;
 P-518           	J-376           	J-350           	2641.1990   	3.0000      	147.0000    	0.0000      	Open  	;
 P-519           	J-373           	J-87            	1151.3900   	3.0000      	147.0000    	0.0000      	Open  	;
 P-52            	J-97            	J-98            	237.5800    	4.0000      	147.0000    	0.0000      	Open  	;
 P-520           	J-1624          	J-135           	2946.5000   	3.0000      	147.0000    	0.0000      	Open  	;
 P-521           	J-94            	J-38            	497.0190    	8.0000      	149.0000    	0.0000      	Open  	;
 P-522           	J-493           	J-729           	1417.4690   	3.0000      	137.0000    	0.0000      	Open  	;
 P-523           	J-496           	O-AV-479        	1.6900      	6.0000      	142.0000    	0.0000      	Open  	;
 P-524           	J-730           	J-493           	745.1090    	3.0000      	137.0000    	0.0000      	Open  	;
 P-525           	J-732           	O-AV-268        	1138.0890   	6.0000      	149.0000    	0.0000      	Open  	;
 P-526           	J-733           	J-734           	2663.1390   	2.0000      	140.0000    	0.0000      	Open  	;
 P-527           	J-1399          	J-29            	8577.3300   	8.0000      	149.0000    	0.0000      	Open  	;
 P-528           	J-735           	J-685           	2930.3600   	6.0000      	149.0000    	0.0000      	Open  	;
 P-529           	J-737           	J-60            	44.3190     	6.0000      	149.0000    	0.0000      	Open  	;
 P-53            	O-Ogden_Vest    	J-728           	4.5990      	6.0000      	142.0000    	0.0000      	Open  	;
 P-530           	J-29            	J-1398          	5204.7500   	8.0000      	149.0000    	0.0000      	Open  	;
 P-531           	J-1725          	J-365           	583.6190    	8.0000      	147.0000    	0.0000      	Open  	;
 P-532           	I-AV-1          	J-733           	3.9700      	6.0000      	149.0000    	0.0000      	Open  	;
 P-533           	O-AV-16         	J-995           	6.4290      	16.0000     	142.0000    	0.0000      	Open  	;
 P-534           	J-742           	J-743           	2.2400      	6.0000      	149.0000    	0.0000      	Open  	;
 P-535           	J-744           	J-745           	8.1700      	8.0000      	149.0000    	0.0000      	Open  	;
 P-536           	J-746           	J-747           	782.3300    	12.0000     	150.0000    	0.0000      	Open  	;
 P-537           	J-747           	O-AV-63         	4.8690      	12.0000     	150.0000    	0.0000      	Open  	;
 P-538           	J-103           	O-AV-73         	7.6500      	12.0000     	150.0000    	0.0000      	Open  	;
 P-539           	I-AV-139        	J-252           	3.9900      	8.0000      	149.0000    	0.0000      	Open  	;
 P-54            	J-80            	J-101           	2722.3000   	4.0000      	147.0000    	0.0000      	Open  	;
 P-540           	I-AV-262        	J-522           	3982.6690   	8.0000      	149.0000    	0.0000      	Open  	;
 P-541           	I-AV-364        	J-152           	1.0190      	8.0000      	149.0000    	0.0000      	Open  	;
 P-542           	J-751           	O-AV-249        	3998.4490   	12.0000     	142.0000    	0.0000      	Open  	;
 P-543           	J-194           	J-71            	5.3200      	12.0000     	142.0000    	0.0000      	Open  	;
 P-544           	J-752           	O-AV-225        	1454.8900   	12.0000     	142.0000    	0.0000      	Open  	;
 P-545           	I-AV-376        	J-11            	2303.8890   	8.0000      	149.0000    	0.0000      	Open  	;
 P-546           	J-755           	J-756           	6027.1690   	12.0000     	142.0000    	0.0000      	Open  	;
 P-547           	J-755           	J-752           	4.7500      	12.0000     	142.0000    	0.0000      	Open  	;
 P-548           	I-AV-388        	O-AV-400        	176.7790    	8.0000      	149.0000    	0.0000      	Open  	;
 P-549           	J-143           	J-757           	998.8300    	8.0000      	149.0000    	0.0000      	Open  	;
 P-55            	J-102           	J-86            	4386.2900   	4.0000      	147.0000    	0.0000      	Open  	;
 P-550           	J-210           	J-204           	335.2390    	8.0000      	149.0000    	0.0000      	Open  	;
 P-551           	J-758           	J-209           	688.8690    	8.0000      	149.0000    	0.0000      	Open  	;
 P-552           	J-243           	J-545           	12.8000     	8.0000      	149.0000    	0.0000      	Open  	;
 P-553           	J-425           	J-759           	1930.7190   	6.0000      	149.0000    	0.0000      	Open  	;
 P-554           	J-760           	J-761           	1503.3000   	6.0000      	149.0000    	0.0000      	Open  	;
 P-555           	J-321           	J-760           	406.2790    	6.0000      	149.0000    	0.0000      	Open  	;
 P-556           	J-221           	J-219           	72.9300     	8.0000      	149.0000    	0.0000      	Open  	;
 P-557           	J-17            	J-205           	1063.0990   	8.0000      	149.0000    	0.0000      	Open  	;
 P-558           	J-16            	J-137           	3.2000      	8.0000      	149.0000    	0.0000      	Open  	;
 P-559           	I-AV-400        	J-669           	317.2600    	8.0000      	149.0000    	0.0000      	Open  	;
 P-56            	O-Output_Pump   	J-263           	27.5790     	8.0000      	149.0000    	0.0000      	Open  	;
 P-560           	J-229           	J-763           	65.8890     	4.0000      	147.0000    	0.0000      	Open  	;
 P-561           	I-AV-413        	O-AV-112        	846.1300    	8.0000      	149.0000    	0.0000      	Open  	;
 P-562           	J-100           	I-Slone_FK      	17.6000     	4.0000      	147.0000    	0.0000      	Open  	;
 P-563           	J-765           	J-766           	132.7290    	3.0000      	137.0000    	0.0000      	Open  	;
 P-564           	J-765           	J-121           	141.1300    	12.0000     	142.0000    	0.0000      	Open  	;
 P-565           	I-AV-112        	J-519           	45.3300     	8.0000      	149.0000    	0.0000      	Open  	;
 P-566           	J-770           	O-AV-79         	6.6990      	3.0000      	137.0000    	0.0000      	Open  	;
 P-567           	J-772           	J-157           	181.4290    	3.0000      	137.0000    	0.0000      	Open  	;
 P-568           	I-AV-35         	J-519           	39.7700     	8.0000      	149.0000    	0.0000      	Open  	;
 P-569           	I-AV-157        	J-1122          	3.2990      	8.0000      	149.0000    	0.0000      	Open  	;
 P-57            	J-105           	J-106           	3992.4890   	4.0000      	147.0000    	0.0000      	Open  	;
 P-570           	I-AV-279        	J-166           	479.2990    	3.0000      	137.0000    	0.0000      	Open  	;
 P-571           	I-AV-401        	O-AV-157        	1773.2500   	8.0000      	149.0000    	0.0000      	Open  	;
 P-572           	I-AV-434        	J-602           	2.9500      	8.0000      	149.0000    	0.0000      	Open  	;
 P-573           	J-21            	O-AV-317        	40.4390     	8.0000      	149.0000    	0.0000      	Open  	;
 P-574           	J-151           	J-778           	1.5700      	8.0000      	149.0000    	0.0000      	Open  	;
 P-575           	I-AV-446        	J-669           	1182.0790   	8.0000      	149.0000    	0.0000      	Open  	;
 P-576           	I-AV-458        	J-555           	17.0000     	8.0000      	149.0000    	0.0000      	Open  	;
 P-577           	J-81            	O-AV-348        	126.6100    	8.0000      	149.0000    	0.0000      	Open  	;
 P-578           	J-72            	J-550           	119.9400    	8.0000      	149.0000    	0.0000      	Open  	;
 P-579           	J-59            	J-549           	68.2090     	8.0000      	149.0000    	0.0000      	Open  	;
 P-58            	J-107           	J-108           	2770.6390   	4.0000      	147.0000    	0.0000      	Open  	;
 P-580           	J-289           	J-318           	120.7300    	6.0000      	149.0000    	0.0000      	Open  	;
 P-581           	J-319           	J-783           	213.3200    	6.0000      	149.0000    	0.0000      	Open  	;
 P-582           	J-784           	J-785           	9.0500      	6.0000      	149.0000    	0.0000      	Open  	;
 P-583           	J-783           	J-784           	4.5390      	6.0000      	149.0000    	0.0000      	Open  	;
 P-584           	J-785           	J-20            	416.7090    	6.0000      	149.0000    	0.0000      	Open  	;
 P-585           	J-546           	J-222           	1367.7190   	8.0000      	149.0000    	0.0000      	Open  	;
 P-586           	I-AV-17         	J-658           	4.3290      	8.0000      	149.0000    	0.0000      	Open  	;
 P-587           	O-AV-29         	J-59            	1297.0500   	8.0000      	149.0000    	0.0000      	Open  	;
 P-588           	I-AV-41         	J-254           	1799.1190   	8.0000      	149.0000    	0.0000      	Open  	;
 P-589           	I-AV-53         	J-1294          	0.7790      	16.0000     	142.0000    	0.0000      	Open  	;
 P-59            	J-109           	O-AV-304        	5.3600      	3.0000      	147.0000    	0.0000      	Open  	;
 P-590           	J-791           	J-792           	303.7200    	12.0000     	142.0000    	0.0000      	Open  	;
 P-591           	J-792           	O-AV-161        	33.3400     	12.0000     	142.0000    	0.0000      	Open  	;
 P-592           	I-AV-65         	O-AV-403        	862.3400    	16.0000     	142.0000    	0.0000      	Open  	;
 P-593           	O-AV-77         	O-AV-53         	2022.2600   	16.0000     	142.0000    	0.0000      	Open  	;
 P-594           	I-AV-89         	J-398           	69.3090     	12.0000     	142.0000    	0.0000      	Open  	;
 P-595           	I-AV-102        	J-935           	166.8990    	12.0000     	142.0000    	0.0000      	Open  	;
 P-596           	J-796           	I-AV-167        	5.6790      	4.0000      	137.0000    	0.0000      	Open  	;
 P-597           	J-177           	O-AV-170        	536.5900    	12.0000     	142.0000    	0.0000      	Open  	;
 P-598           	I-AV-115        	J-588           	8.6090      	12.0000     	142.0000    	0.0000      	Open  	;
 P-599           	J-799           	O-AV-173        	3.0190      	12.0000     	142.0000    	0.0000      	Open  	;
 P-6             	O-Dry_Creek     	J-863           	8.7890      	12.0000     	142.0000    	0.0000      	Open  	;
 P-60            	J-86            	J-111           	3830.7900   	3.0000      	147.0000    	0.0000      	Open  	;
 P-600           	J-801           	J-799           	3.2890      	12.0000     	142.0000    	0.0000      	Open  	;
 P-601           	I-AV-127        	J-951           	3.7690      	12.0000     	142.0000    	0.0000      	Open  	;
 P-602           	J-799           	I-AV-171        	4.1590      	4.0000      	137.0000    	0.0000      	Open  	;
 P-603           	I-AV-140        	J-631           	6.1300      	12.0000     	142.0000    	0.0000      	Open  	;
 P-604           	I-AV-152        	J-633           	2.1400      	12.0000     	142.0000    	0.0000      	Open  	;
 P-605           	J-61            	O-AV-177        	3.9600      	3.0000      	137.0000    	0.0000      	Open  	;
 P-606           	J-62            	J-805           	2739.1290   	12.0000     	142.0000    	0.0000      	Open  	;
 P-607           	J-805           	J-806           	20.6290     	12.0000     	142.0000    	0.0000      	Open  	;
 P-608           	J-807           	J-808           	15.1490     	6.0000      	149.0000    	0.0000      	Open  	;
 P-609           	J-713           	J-807           	5.1700      	6.0000      	149.0000    	0.0000      	Open  	;
 P-61            	J-111           	J-112           	1778.8190   	3.0000      	147.0000    	0.0000      	Open  	;
 P-610           	J-809           	J-810           	769.1900    	6.0000      	149.0000    	0.0000      	Open  	;
 P-611           	J-647           	J-515           	433.2090    	6.0000      	149.0000    	0.0000      	Open  	;
 P-612           	J-810           	J-647           	62.0090     	6.0000      	149.0000    	0.0000      	Open  	;
 P-613           	J-811           	J-809           	25.3290     	6.0000      	149.0000    	0.0000      	Open  	;
 P-614           	J-812           	J-811           	11.6590     	6.0000      	149.0000    	0.0000      	Open  	;
 P-615           	O-AV-164        	J-1542          	1.6200      	12.0000     	142.0000    	0.0000      	Open  	;
 P-616           	J-815           	J-816           	1661.6190   	12.0000     	142.0000    	0.0000      	Open  	;
 P-617           	J-817           	J-818           	4.4200      	12.0000     	142.0000    	0.0000      	Open  	;
 P-618           	J-818           	J-815           	32.3100     	12.0000     	142.0000    	0.0000      	Open  	;
 P-619           	J-819           	J-820           	651.6300    	3.0000      	137.0000    	0.0000      	Open  	;
 P-62            	J-113           	J-114           	1056.9200   	3.0000      	147.0000    	0.0000      	Open  	;
 P-620           	J-816           	J-821           	42.4390     	3.0000      	137.0000    	0.0000      	Open  	;
 P-621           	J-821           	J-822           	373.1900    	3.0000      	137.0000    	0.0000      	Open  	;
 P-622           	J-823           	J-824           	571.8490    	3.0000      	137.0000    	0.0000      	Open  	;
 P-623           	J-825           	J-826           	2129.8700   	12.0000     	142.0000    	0.0000      	Open  	;
 P-624           	J-816           	J-823           	157.2700    	12.0000     	142.0000    	0.0000      	Open  	;
 P-625           	J-823           	J-827           	52.9000     	12.0000     	142.0000    	0.0000      	Open  	;
 P-626           	J-827           	J-828           	3.7990      	12.0000     	142.0000    	0.0000      	Open  	;
 P-627           	J-828           	J-825           	6.1790      	12.0000     	142.0000    	0.0000      	Open  	;
 P-628           	J-830           	O-AV-237        	8.0790      	12.0000     	142.0000    	0.0000      	Open  	;
 P-629           	I-AV-176        	J-626           	2322.4490   	12.0000     	142.0000    	0.0000      	Open  	;
 P-63            	J-115           	O-AV-313        	3.0090      	12.0000     	142.0000    	0.0000      	Open  	;
 P-630           	J-722           	O-AV-236        	1777.4200   	12.0000     	142.0000    	0.0000      	Open  	;
 P-631           	O-AV-188        	J-625           	0.4190      	12.0000     	142.0000    	0.0000      	Open  	;
 P-632           	J-833           	O-AV-254        	99.6290     	6.0000      	142.0000    	0.0000      	Open  	;
 P-634           	J-834           	O-AV-255        	4.8600      	6.0000      	142.0000    	0.0000      	Open  	;
 P-635           	I-AV-213        	J-621           	1.2200      	12.0000     	142.0000    	0.0000      	Open  	;
 P-636           	J-837           	J-836           	354.3500    	6.0000      	142.0000    	0.0000      	Open  	;
 P-637           	J-839           	O-AV-258        	4238.3790   	2.0000      	129.0000    	0.0000      	Open  	;
 P-638           	I-AV-226        	J-622           	13.5500     	3.0000      	137.0000    	0.0000      	Open  	;
 P-639           	J-840           	I-AV-259        	870.0200    	2.0000      	129.0000    	0.0000      	Open  	;
 P-64            	J-116           	O-AV-296        	25.6390     	12.0000     	142.0000    	0.0000      	Open  	;
 P-640           	J-842           	J-195           	651.0390    	12.0000     	142.0000    	0.0000      	Open  	;
 P-641           	J-196           	O-AV-260        	227.0390    	12.0000     	150.0000    	0.0000      	Open  	;
 P-642           	I-AV-238        	J-1675          	154.2790    	3.0000      	137.0000    	0.0000      	Open  	;
 P-643           	J-844           	J-845           	16.7390     	12.0000     	150.0000    	0.0000      	Open  	;
 P-644           	J-845           	J-846           	1124.1300   	12.0000     	150.0000    	0.0000      	Open  	;
 P-645           	J-847           	O-AV-203        	4.8000      	8.0000      	149.0000    	0.0000      	Open  	;
 P-646           	I-AV-250        	J-954           	2.2500      	12.0000     	142.0000    	0.0000      	Open  	;
 P-647           	J-850           	O-AV-204        	575.2890    	8.0000      	149.0000    	0.0000      	Open  	;
 P-648           	J-78            	J-324           	276.9700    	4.0000      	147.0000    	0.0000      	Open  	;
 P-649           	I-AV-263        	J-955           	7.1390      	12.0000     	142.0000    	0.0000      	Open  	;
 P-65            	J-118           	J-119           	2664.6200   	12.0000     	142.0000    	0.0000      	Open  	;
 P-650           	J-852           	J-53            	1135.4300   	12.0000     	142.0000    	0.0000      	Open  	;
 P-651           	I-AV-275        	J-957           	60.1500     	3.0000      	137.0000    	0.0000      	Open  	;
 P-652           	J-830           	O-AV-240        	228.3390    	3.0000      	137.0000    	0.0000      	Open  	;
 P-653           	I-AV-287        	J-589           	3.4000      	12.0000     	142.0000    	0.0000      	Open  	;
 P-654           	J-250           	J-589           	889.4090    	3.0000      	137.0000    	0.0000      	Open  	;
 P-655           	J-857           	O-AV-242        	1156.2600   	3.0000      	137.0000    	0.0000      	Open  	;
 P-656           	J-858           	J-859           	552.6400    	3.0000      	137.0000    	0.0000      	Open  	;
 P-657           	J-249           	J-594           	2169.0200   	3.0000      	137.0000    	0.0000      	Open  	;
 P-658           	J-231           	J-596           	3.5490      	12.0000     	142.0000    	0.0000      	Open  	;
 P-659           	J-851           	J-861           	4.1300      	8.0000      	149.0000    	0.0000      	Open  	;
 P-66            	O-Perkins_Madden	J-126           	757.4890    	12.0000     	142.0000    	0.0000      	Open  	;
 P-660           	J-861           	J-446           	2.2400      	8.0000      	149.0000    	0.0000      	Open  	;
 P-661           	I-AV-337        	J-598           	1313.2900   	12.0000     	142.0000    	0.0000      	Open  	;
 P-662           	J-447           	J-862           	5.9890      	8.0000      	149.0000    	0.0000      	Open  	;
 P-663           	J-238           	J-598           	79.5190     	3.0000      	137.0000    	0.0000      	Open  	;
 P-664           	O-AV-361        	J-1000          	20.6900     	3.0000      	137.0000    	0.0000      	Open  	;
 P-665           	J-268           	O-AV-365        	507.4200    	12.0000     	142.0000    	0.0000      	Open  	;
 P-666           	J-808           	J-516           	1022.0490   	6.0000      	149.0000    	0.0000      	Open  	;
 P-667           	I-AV-365        	J-703           	3.4300      	12.0000     	142.0000    	0.0000      	Open  	;
 P-668           	I-AV-366        	J-1642          	359.1790    	6.0000      	142.0000    	0.0000      	Open  	;
 P-669           	J-328           	J-92            	4.8400      	4.0000      	147.0000    	0.0000      	Open  	;
 P-67            	I-Possum_trot   	J-462           	667.5990    	8.0000      	149.0000    	0.0000      	Open  	;
 P-670           	J-92            	J-868           	1834.8190   	4.0000      	147.0000    	0.0000      	Open  	;
 P-671           	J-868           	J-869           	1574.0400   	4.0000      	147.0000    	0.0000      	Open  	;
 P-672           	J-332           	J-39            	950.1500    	4.0000      	147.0000    	0.0000      	Open  	;
 P-673           	J-240           	J-612           	402.1300    	6.0000      	149.0000    	0.0000      	Open  	;
 P-674           	J-240           	O-AV-390        	5.4800      	6.0000      	149.0000    	0.0000      	Open  	;
 P-675           	I-AV-367        	J-873           	5.1590      	12.0000     	142.0000    	0.0000      	Open  	;
 P-676           	I-AV-369        	J-874           	487.7200    	12.0000     	142.0000    	0.0000      	Open  	;
 P-677           	J-873           	O-AV-369        	23.1390     	12.0000     	142.0000    	0.0000      	Open  	;
 P-678           	I-AV-370        	J-873           	2330.1990   	12.0000     	142.0000    	0.0000      	Open  	;
 P-679           	J-874           	J-245           	299.8290    	3.0000      	137.0000    	0.0000      	Open  	;
 P-68            	J-124           	O-AV-97         	2441.6590   	12.0000     	142.0000    	0.0000      	Open  	;
 P-680           	I-AV-371        	O-AV-372        	1.9500      	12.0000     	142.0000    	0.0000      	Open  	;
 P-681           	J-878           	J-190           	373.3800    	3.0000      	137.0000    	0.0000      	Open  	;
 P-682           	J-224           	J-880           	825.1400    	12.0000     	142.0000    	0.0000      	Open  	;
 P-683           	I-AV-372        	J-1035          	6.2190      	12.0000     	142.0000    	0.0000      	Open  	;
 P-684           	I-AV-373        	O-AV-374        	0.9100      	12.0000     	142.0000    	0.0000      	Open  	;
 P-685           	I-AV-374        	J-939           	3.8490      	12.0000     	142.0000    	0.0000      	Open  	;
 P-686           	J-166           	O-AV-65         	584.7800    	16.0000     	142.0000    	0.0000      	Open  	;
 P-687           	J-886           	O-AV-154        	2000.9590   	8.0000      	149.0000    	0.0000      	Open  	;
 P-688           	J-339           	O-AV-155        	214.7590    	8.0000      	149.0000    	0.0000      	Open  	;
 P-689           	I-AV-375        	J-1003          	22.0490     	3.0000      	137.0000    	0.0000      	Open  	;
 P-69            	J-126           	J-127           	2830.4390   	12.0000     	142.0000    	0.0000      	Open  	;
 P-690           	I-AV-377        	J-939           	1329.8590   	12.0000     	142.0000    	0.0000      	Open  	;
 P-691           	J-149           	J-600           	127.4100    	8.0000      	149.0000    	0.0000      	Open  	;
 P-692           	I-AV-378        	J-937           	2.2590      	12.0000     	142.0000    	0.0000      	Open  	;
 P-693           	I-AV-380        	J-1309          	1903.6890   	3.0000      	147.0000    	0.0000      	Open  	;
 P-694           	I-AV-381        	J-1128          	3.1800      	3.0000      	147.0000    	0.0000      	Open  	;
 P-695           	J-890           	O-AV-36         	5.3800      	8.0000      	149.0000    	0.0000      	Open  	;
 P-696           	I-AV-382        	J-1129          	1066.0690   	3.0000      	147.0000    	0.0000      	Open  	;
 P-697           	J-892           	O-AV-34         	6.2390      	3.0000      	147.0000    	0.0000      	Open  	;
 P-698           	J-892           	J-894           	1212.2900   	8.0000      	149.0000    	0.0000      	Open  	;
 P-699           	J-436           	O-AV-37         	1.7000      	8.0000      	149.0000    	0.0000      	Open  	;
 P-7             	J-13            	J-14            	1158.6700   	8.0000      	149.0000    	0.0000      	Open  	;
 P-70            	O-Short_Fork    	J-135           	1707.8390   	3.0000      	147.0000    	0.0000      	Open  	;
 P-700           	J-436           	J-526           	1577.3490   	8.0000      	149.0000    	0.0000      	Open  	;
 P-701           	J-896           	J-897           	550.2890    	6.0000      	149.0000    	0.0000      	Open  	;
 P-702           	J-897           	J-563           	8.6890      	6.0000      	149.0000    	0.0000      	Open  	;
 P-703           	J-898           	J-899           	409.6600    	6.0000      	149.0000    	0.0000      	Open  	;
 P-704           	J-900           	J-898           	6.2300      	6.0000      	149.0000    	0.0000      	Open  	;
 P-705           	J-901           	J-900           	345.6700    	6.0000      	149.0000    	0.0000      	Open  	;
 P-706           	J-564           	J-901           	334.0400    	6.0000      	149.0000    	0.0000      	Open  	;
 P-707           	J-1065          	I-HWY_80a       	39.3100     	6.0000      	149.0000    	0.0000      	Open  	;
 P-708           	I-AV-383        	J-1129          	17.5100     	3.0000      	147.0000    	0.0000      	Open  	;
 P-709           	I-AV-384        	J-1385          	3.2000      	3.0000      	147.0000    	0.0000      	Open  	;
 P-71            	J-130           	J-131           	3687.7500   	3.0000      	147.0000    	0.0000      	Open  	;
 P-710           	J-14            	J-297           	2344.6100   	6.0000      	149.0000    	0.0000      	Open  	;
 P-711           	O-AV-385        	O-AV-383        	1871.8900   	3.0000      	147.0000    	0.0000      	Open  	;
 P-712           	J-905           	J-409           	0.1800      	8.0000      	149.0000    	0.0000      	Open  	;
 P-713           	J-906           	J-907           	1.9090      	8.0000      	149.0000    	0.0000      	Open  	;
 P-714           	J-908           	J-909           	1.0900      	8.0000      	149.0000    	0.0000      	Open  	;
 P-715           	J-889           	J-160           	511.7200    	8.0000      	149.0000    	0.0000      	Open  	;
 P-716           	J-911           	J-912           	2.0690      	3.0000      	147.0000    	0.0000      	Open  	;
 P-717           	J-791           	J-19            	67.7090     	12.0000     	142.0000    	0.0000      	Open  	;
 P-718           	J-211           	O-AV-7          	2.4700      	6.0000      	149.0000    	0.0000      	Open  	;
 P-719           	J-245           	J-259           	6.5790      	3.0000      	137.0000    	0.0000      	Open  	;
 P-72            	J-64            	I-AV-321        	3.4300      	3.0000      	147.0000    	0.0000      	Open  	;
 P-720           	J-424           	J-914           	0.6000      	6.0000      	149.0000    	0.0000      	Open  	;
 P-721           	J-190           	J-259           	2.4900      	3.0000      	137.0000    	0.0000      	Open  	;
 P-722           	J-917           	J-918           	807.1500    	8.0000      	149.0000    	0.0000      	Open  	;
 P-723           	J-916           	J-919           	2.6700      	8.0000      	149.0000    	0.0000      	Open  	;
 P-724           	J-920           	J-921           	1.7790      	8.0000      	149.0000    	0.0000      	Open  	;
 P-725           	J-922           	J-918           	19.6200     	8.0000      	149.0000    	0.0000      	Open  	;
 P-726           	J-923           	O-AV-270        	8.7100      	8.0000      	149.0000    	0.0000      	Open  	;
 P-727           	J-925           	I-AV-271        	372.1600    	2.0000      	140.0000    	0.0000      	Open  	;
 P-728           	J-423           	O-AV-272        	5.1590      	8.0000      	149.0000    	0.0000      	Open  	;
 P-729           	I-AV-389        	J-1001          	15.6700     	16.0000     	142.0000    	0.0000      	Open  	;
 P-73            	J-57            	J-984           	5205.1200   	3.0000      	147.0000    	0.0000      	Open  	;
 P-730           	J-192           	O-AV-393        	184.8500    	12.0000     	142.0000    	0.0000      	Open  	;
 P-731           	J-193           	O-AV-394        	24.2900     	12.0000     	142.0000    	0.0000      	Open  	;
 P-732           	J-930           	O-AV-261        	3719.3700   	12.0000     	142.0000    	0.0000      	Open  	;
 P-733           	J-196           	J-931           	2491.2600   	12.0000     	142.0000    	0.0000      	Open  	;
 P-734           	J-931           	J-932           	670.9890    	12.0000     	142.0000    	0.0000      	Open  	;
 P-735           	I-AV-393        	J-193           	25.0900     	12.0000     	142.0000    	0.0000      	Open  	;
 P-736           	J-930           	J-933           	1106.0500   	12.0000     	142.0000    	0.0000      	Open  	;
 P-737           	J-846           	O-AV-264        	11.0600     	12.0000     	150.0000    	0.0000      	Open  	;
 P-738           	J-935           	J-936           	1867.2600   	12.0000     	142.0000    	0.0000      	Open  	;
 P-739           	J-936           	O-AV-378        	1085.4200   	12.0000     	142.0000    	0.0000      	Open  	;
 P-74            	J-133           	J-134           	765.5900    	3.0000      	147.0000    	0.0000      	Open  	;
 P-740           	I-AV-394        	O-AV-395        	4.1790      	12.0000     	142.0000    	0.0000      	Open  	;
 P-741           	J-937           	J-940           	163.6900    	3.0000      	137.0000    	0.0000      	Open  	;
 P-742           	J-941           	J-51            	142.6390    	16.0000     	150.0000    	0.0000      	Open  	;
 P-743           	J-168           	J-941           	129.5890    	16.0000     	150.0000    	0.0000      	Open  	;
 P-744           	J-177           	J-942           	6.0390      	12.0000     	142.0000    	0.0000      	Open  	;
 P-745           	J-943           	J-944           	0.1890      	8.0000      	149.0000    	0.0000      	Open  	;
 P-746           	J-742           	O-AV-445        	25.5100     	8.0000      	149.0000    	0.0000      	Open  	;
 P-747           	J-945           	J-943           	1904.9300   	8.0000      	149.0000    	0.0000      	Open  	;
 P-749           	I-AV-395        	J-215           	1038.6300   	12.0000     	142.0000    	0.0000      	Open  	;
 P-75            	J-134           	I-Short_Fork    	125.6290    	3.0000      	147.0000    	0.0000      	Open  	;
 P-750           	I-AV-396        	J-224           	10.0600     	12.0000     	142.0000    	0.0000      	Open  	;
 P-751           	J-202           	J-1017          	2.9900      	12.0000     	142.0000    	0.0000      	Open  	;
 P-752           	I-AV-398        	O-AV-399        	2315.3790   	12.0000     	142.0000    	0.0000      	Open  	;
 P-753           	I-AV-399        	J-1022          	1.0590      	12.0000     	142.0000    	0.0000      	Open  	;
 P-754           	I-AV-402        	J-1105          	1423.4690   	12.0000     	142.0000    	0.0000      	Open  	;
 P-755           	J-951           	J-935           	3686.8000   	12.0000     	142.0000    	0.0000      	Open  	;
 P-756           	I-AV-403        	J-998           	3.0690      	16.0000     	142.0000    	0.0000      	Open  	;
 P-757           	J-953           	O-AV-213        	0.0590      	12.0000     	142.0000    	0.0000      	Open  	;
 P-758           	J-954           	O-AV-263        	282.1700    	12.0000     	142.0000    	0.0000      	Open  	;
 P-759           	I-AV-404        	J-1099          	1115.0600   	3.0000      	137.0000    	0.0000      	Open  	;
 P-76            	J-45            	J-136           	452.3990    	3.0000      	147.0000    	0.0000      	Open  	;
 P-760           	J-957           	J-590           	993.0990    	12.0000     	142.0000    	0.0000      	Open  	;
 P-761           	I-AV-405        	J-1099          	38.0900     	3.0000      	137.0000    	0.0000      	Open  	;
 P-762           	J-958           	J-959           	106.7390    	8.0000      	149.0000    	0.0000      	Open  	;
 P-763           	J-958           	O-AV-187        	3.9800      	8.0000      	149.0000    	0.0000      	Open  	;
 P-764           	J-961           	J-962           	595.5390    	2.0000      	140.0000    	0.0000      	Open  	;
 P-765           	J-962           	J-963           	1.8700      	2.0000      	140.0000    	0.0000      	Open  	;
 P-766           	J-961           	J-964           	1244.2700   	8.0000      	149.0000    	0.0000      	Open  	;
 P-767           	J-207           	J-1099          	77.6690     	3.0000      	137.0000    	0.0000      	Open  	;
 P-768           	J-445           	J-481           	3.8490      	8.0000      	149.0000    	0.0000      	Open  	;
 P-769           	J-413           	J-965           	3.9300      	4.0000      	147.0000    	0.0000      	Open  	;
 P-77            	J-137           	J-45            	106.4590    	3.0000      	147.0000    	0.0000      	Open  	;
 P-770           	I-AV-407        	J-1105          	4.5500      	12.0000     	142.0000    	0.0000      	Open  	;
 P-771           	J-529           	J-967           	2314.0400   	2.0000      	140.0000    	0.0000      	Open  	;
 P-772           	J-529           	O-AV-1          	5304.7900   	6.0000      	149.0000    	0.0000      	Open  	;
 P-773           	I-AV-408        	J-202           	1690.9000   	12.0000     	142.0000    	0.0000      	Open  	;
 P-774           	I-AV-409        	J-1161          	44.5290     	12.0000     	142.0000    	0.0000      	Open  	;
 P-775           	J-970           	J-971           	827.0490    	6.0000      	149.0000    	0.0000      	Open  	;
 P-776           	O-AV-410        	J-1159          	480.3590    	3.0000      	137.0000    	0.0000      	Open  	;
 P-777           	J-971           	J-974           	2360.3400   	6.0000      	149.0000    	0.0000      	Open  	;
 P-778           	I-AV-411        	J-1159          	6.1100      	3.0000      	137.0000    	0.0000      	Open  	;
 P-779           	J-974           	J-977           	4080.7600   	6.0000      	149.0000    	0.0000      	Open  	;
 P-78            	J-138           	J-139           	3925.5400   	3.0000      	147.0000    	0.0000      	Open  	;
 P-780           	J-978           	I-AV-3          	371.4890    	3.0000      	147.0000    	0.0000      	Open  	;
 P-781           	J-979           	J-401           	15.2890     	6.0000      	149.0000    	0.0000      	Open  	;
 P-782           	J-980           	J-401           	33.8490     	6.0000      	149.0000    	0.0000      	Open  	;
 P-783           	J-981           	O-AV-95         	3.8800      	6.0000      	149.0000    	0.0000      	Open  	;
 P-784           	J-983           	J-984           	959.5590    	3.0000      	147.0000    	0.0000      	Open  	;
 P-785           	J-125           	I-Perkins_Madden	1412.0300   	12.0000     	142.0000    	0.0000      	Open  	;
 P-786           	J-985           	J-986           	5816.1800   	3.0000      	137.0000    	0.0000      	Open  	;
 P-787           	J-985           	J-124           	27.8990     	12.0000     	142.0000    	0.0000      	Open  	;
 P-788           	J-987           	J-985           	1385.1600   	12.0000     	142.0000    	0.0000      	Open  	;
 P-789           	J-989           	O-AV-439        	2253.4590   	12.0000     	150.0000    	0.0000      	Open  	;
 P-79            	J-140           	J-141           	183.7100    	8.0000      	149.0000    	0.0000      	Open  	;
 P-790           	O-AV-414        	J-1160          	1025.6800   	3.0000      	137.0000    	0.0000      	Open  	;
 P-791           	J-991           	O-AV-301        	1689.1500   	12.0000     	150.0000    	0.0000      	Open  	;
 P-792           	J-991           	O-AV-425        	3.2990      	12.0000     	150.0000    	0.0000      	Open  	;
 P-793           	J-512           	O-AV-333        	2.1400      	16.0000     	142.0000    	0.0000      	Open  	;
 P-794           	J-170           	J-186           	1.9600      	12.0000     	142.0000    	0.0000      	Open  	;
 P-795           	J-993           	J-994           	1156.2500   	3.0000      	137.0000    	0.0000      	Open  	;
 P-796           	J-993           	J-995           	2955.5800   	16.0000     	142.0000    	0.0000      	Open  	;
 P-797           	J-996           	I-AV-16         	0.3400      	16.0000     	142.0000    	0.0000      	Open  	;
 P-798           	J-995           	O-AV-350        	8.3990      	16.0000     	142.0000    	0.0000      	Open  	;
 P-799           	J-996           	J-997           	536.1400    	3.0000      	137.0000    	0.0000      	Open  	;
 P-8             	I-Elk_Glenn     	J-303           	1380.0690   	6.0000      	149.0000    	0.0000      	Open  	;
 P-80            	J-142           	J-143           	1027.2290   	8.0000      	149.0000    	0.0000      	Open  	;
 P-800           	I-AV-416        	J-1486          	12.3990     	3.0000      	137.0000    	0.0000      	Open  	;
 P-801           	J-999           	I-AV-361        	598.5590    	3.0000      	137.0000    	0.0000      	Open  	;
 P-802           	J-95            	O-AV-409        	517.8900    	12.0000     	142.0000    	0.0000      	Open  	;
 P-803           	J-998           	O-AV-375        	211.8500    	3.0000      	137.0000    	0.0000      	Open  	;
 P-804           	I-AV-418        	J-569           	655.4690    	12.0000     	142.0000    	0.0000      	Open  	;
 P-805           	J-99            	O-AV-420        	3.7790      	3.0000      	137.0000    	0.0000      	Open  	;
 P-806           	J-229           	J-248           	430.8500    	8.0000      	149.0000    	0.0000      	Open  	;
 P-807           	J-201           	J-1006          	2.8290      	8.0000      	149.0000    	0.0000      	Open  	;
 P-808           	J-108           	J-1007          	1.6590      	4.0000      	147.0000    	0.0000      	Open  	;
 P-809           	J-1008          	J-197           	2756.6390   	8.0000      	149.0000    	0.0000      	Open  	;
 P-81            	J-144           	J-145           	1977.2290   	8.0000      	149.0000    	0.0000      	Open  	;
 P-810           	J-1009          	J-1010          	1903.3190   	12.0000     	142.0000    	0.0000      	Open  	;
 P-811           	J-1010          	J-623           	30.7190     	12.0000     	142.0000    	0.0000      	Open  	;
 P-812           	I-AV-420        	J-574           	321.8200    	3.0000      	137.0000    	0.0000      	Open  	;
 P-813           	J-347           	J-746           	1046.4590   	12.0000     	150.0000    	0.0000      	Open  	;
 P-814           	J-746           	J-1011          	94.3890     	3.0000      	147.0000    	0.0000      	Open  	;
 P-815           	J-8             	J-758           	429.6600    	8.0000      	149.0000    	0.0000      	Open  	;
 P-816           	J-675           	J-1012          	773.1590    	8.0000      	149.0000    	0.0000      	Open  	;
 P-817           	J-1012          	J-7             	454.9200    	8.0000      	149.0000    	0.0000      	Open  	;
 P-818           	J-1013          	J-680           	990.2890    	8.0000      	149.0000    	0.0000      	Open  	;
 P-819           	J-1014          	J-1013          	1309.3290   	8.0000      	149.0000    	0.0000      	Open  	;
 P-82            	J-146           	J-147           	771.7890    	8.0000      	149.0000    	0.0000      	Open  	;
 P-820           	I-AV-421        	J-571           	3.2200      	3.0000      	137.0000    	0.0000      	Open  	;
 P-821           	O-AV-422        	J-578           	786.1190    	12.0000     	142.0000    	0.0000      	Open  	;
 P-822           	I-AV-424        	J-122           	308.9700    	12.0000     	142.0000    	0.0000      	Open  	;
 P-823           	J-122           	J-150           	8.6000      	12.0000     	142.0000    	0.0000      	Open  	;
 P-824           	J-224           	J-1017          	276.6400    	12.0000     	142.0000    	0.0000      	Open  	;
 P-825           	J-150           	J-1045          	801.4600    	12.0000     	142.0000    	0.0000      	Open  	;
 P-826           	J-1020          	O-AV-407        	1981.9590   	12.0000     	142.0000    	0.0000      	Open  	;
 P-827           	J-880           	O-AV-398        	6.3290      	12.0000     	142.0000    	0.0000      	Open  	;
 P-828           	J-104           	O-AV-448        	20.3600     	12.0000     	142.0000    	0.0000      	Open  	;
 P-829           	I-AV-437        	J-464           	117.8390    	16.0000     	142.0000    	0.0000      	Open  	;
 P-83            	J-148           	J-149           	1700.8390   	8.0000      	149.0000    	0.0000      	Open  	;
 P-830           	J-1023          	O-AV-209        	34.9300     	3.0000      	137.0000    	0.0000      	Open  	;
 P-831           	J-66            	J-175           	189.1790    	12.0000     	142.0000    	0.0000      	Open  	;
 P-832           	J-175           	O-AV-210        	51.7090     	3.0000      	137.0000    	0.0000      	Open  	;
 P-833           	I-AV-448        	O-AV-24         	1187.1090   	12.0000     	142.0000    	0.0000      	Open  	;
 P-834           	J-1023          	J-1026          	172.5000    	3.0000      	137.0000    	0.0000      	Open  	;
 P-835           	I-AV-459        	J-1047          	3.0390      	12.0000     	142.0000    	0.0000      	Open  	;
 P-836           	O-AV-470        	J-1692          	666.5800    	12.0000     	142.0000    	0.0000      	Open  	;
 P-837           	I-AV-2          	J-1048          	2.0590      	12.0000     	142.0000    	0.0000      	Open  	;
 P-838           	J-1027          	J-1028          	4.9490      	8.0000      	149.0000    	0.0000      	Open  	;
 P-839           	J-1029          	I-1410_Pump     	81.6200     	8.0000      	149.0000    	0.0000      	Open  	;
 P-84            	O-Slone_FK      	J-97            	21.0590     	4.0000      	147.0000    	0.0000      	Open  	;
 P-840           	J-261           	O-AV-175        	3.8490      	8.0000      	149.0000    	0.0000      	Open  	;
 P-841           	I-AV-13         	J-582           	4697.9500   	12.0000     	142.0000    	0.0000      	Open  	;
 P-842           	I-AV-24         	J-585           	12.2390     	12.0000     	142.0000    	0.0000      	Open  	;
 P-843           	J-940           	J-1033          	940.7500    	12.0000     	142.0000    	0.0000      	Open  	;
 P-844           	J-1035          	O-AV-373        	2374.5600   	12.0000     	142.0000    	0.0000      	Open  	;
 P-845           	J-121           	J-585           	284.0590    	12.0000     	142.0000    	0.0000      	Open  	;
 P-846           	J-157           	J-770           	9.3590      	3.0000      	137.0000    	0.0000      	Open  	;
 P-847           	I-AV-68         	J-765           	140.2100    	12.0000     	142.0000    	0.0000      	Open  	;
 P-848           	I-AV-79         	J-771           	357.9100    	3.0000      	137.0000    	0.0000      	Open  	;
 P-849           	J-401           	I-AV-93         	0.2590      	6.0000      	149.0000    	0.0000      	Open  	;
 P-85            	J-152           	J-153           	247.8690    	8.0000      	149.0000    	0.0000      	Open  	;
 P-850           	I-AV-90         	O-AV-437        	4.9290      	16.0000     	142.0000    	0.0000      	Open  	;
 P-851           	J-89            	J-775           	837.9400    	3.0000      	137.0000    	0.0000      	Open  	;
 P-852           	I-AV-113        	J-775           	115.5400    	3.0000      	137.0000    	0.0000      	Open  	;
 P-853           	I-AV-124        	O-AV-113        	545.6590    	3.0000      	137.0000    	0.0000      	Open  	;
 P-854           	J-400           	O-AV-94         	3.2990      	6.0000      	149.0000    	0.0000      	Open  	;
 P-855           	I-AV-135        	O-AV-124        	2.7200      	3.0000      	137.0000    	0.0000      	Open  	;
 P-856           	J-1044          	J-981           	1438.4300   	6.0000      	149.0000    	0.0000      	Open  	;
 P-857           	J-154           	J-775           	1247.9200   	3.0000      	137.0000    	0.0000      	Open  	;
 P-858           	O-AV-168        	J-15            	63.9300     	3.0000      	137.0000    	0.0000      	Open  	;
 P-859           	J-1045          	J-1047          	2739.9390   	12.0000     	142.0000    	0.0000      	Open  	;
 P-86            	J-2             	J-867           	14.1190     	6.0000      	149.0000    	0.0000      	Open  	;
 P-860           	J-1048          	J-1049          	2.8290      	12.0000     	142.0000    	0.0000      	Open  	;
 P-861           	J-1051          	O-AV-68         	729.3900    	12.0000     	142.0000    	0.0000      	Open  	;
 P-862           	I-AV-179        	J-1051          	8.0790      	12.0000     	142.0000    	0.0000      	Open  	;
 P-863           	I-AV-190        	J-871           	20.2000     	6.0000      	149.0000    	0.0000      	Open  	;
 P-864           	I-AV-201        	O-AV-212        	2.2790      	6.0000      	149.0000    	0.0000      	Open  	;
 P-865           	J-1053          	O-AV-343        	1498.2700   	8.0000      	149.0000    	0.0000      	Open  	;
 P-866           	J-1055          	J-1053          	872.9500    	8.0000      	149.0000    	0.0000      	Open  	;
 P-867           	J-1053          	J-1056          	249.9290    	8.0000      	149.0000    	0.0000      	Open  	;
 P-868           	J-1054          	J-1057          	885.5100    	8.0000      	149.0000    	0.0000      	Open  	;
 P-869           	J-1058          	J-217           	311.6790    	8.0000      	149.0000    	0.0000      	Open  	;
 P-87            	J-349           	J-2             	18.5690     	6.0000      	149.0000    	0.0000      	Open  	;
 P-870           	J-1058          	O-AV-338        	1439.5400   	8.0000      	149.0000    	0.0000      	Open  	;
 P-871           	I-AV-212        	J-871           	7.6300      	6.0000      	149.0000    	0.0000      	Open  	;
 P-872           	J-27            	J-559           	1052.5400   	8.0000      	149.0000    	0.0000      	Open  	;
 P-873           	I-AV-224        	J-787           	8.2890      	12.0000     	150.0000    	0.0000      	Open  	;
 P-874           	I-AV-235        	J-528           	17.3090     	12.0000     	150.0000    	0.0000      	Open  	;
 P-875           	J-565           	J-1060          	13.6590     	6.0000      	149.0000    	0.0000      	Open  	;
 P-876           	J-1060          	J-1061          	603.4290    	6.0000      	149.0000    	0.0000      	Open  	;
 P-877           	J-1061          	J-1062          	629.7700    	6.0000      	149.0000    	0.0000      	Open  	;
 P-878           	J-1062          	J-1063          	7.2190      	6.0000      	149.0000    	0.0000      	Open  	;
 P-879           	J-1063          	J-1064          	520.7000    	6.0000      	149.0000    	0.0000      	Open  	;
 P-88            	J-1237          	Surf_SRC        	121.1100    	12.0000     	142.0000    	0.0000      	Open  	;
 P-880           	J-1064          	J-896           	5.0990      	6.0000      	149.0000    	0.0000      	Open  	;
 P-881           	O-AV-246        	J-50            	266.3200    	12.0000     	150.0000    	0.0000      	Open  	;
 P-882           	J-1065          	O-AV-8          	306.0400    	6.0000      	149.0000    	0.0000      	Open  	;
 P-883           	I-AV-257        	J-529           	16.0900     	6.0000      	149.0000    	0.0000      	Open  	;
 P-884           	I-AV-268        	J-733           	10.3100     	6.0000      	149.0000    	0.0000      	Open  	;
 P-885           	I-AV-290        	O-AV-62         	10.1590     	6.0000      	149.0000    	0.0000      	Open  	;
 P-886           	J-216           	J-1070          	2178.7700   	8.0000      	149.0000    	0.0000      	Open  	;
 P-887           	I-AV-301        	J-464           	520.1300    	12.0000     	150.0000    	0.0000      	Open  	;
 P-888           	J-409           	O-AV-23         	4.5900      	8.0000      	149.0000    	0.0000      	Open  	;
 P-889           	J-907           	J-432           	170.7500    	8.0000      	149.0000    	0.0000      	Open  	;
 P-89            	O-Rock_Forka    	J-635           	483.2690    	8.0000      	149.0000    	0.0000      	Open  	;
 P-890           	J-432           	J-908           	2273.5000   	8.0000      	149.0000    	0.0000      	Open  	;
 P-891           	J-908           	O-AV-27         	4.4800      	8.0000      	149.0000    	0.0000      	Open  	;
 P-892           	J-1073          	J-161           	511.9290    	3.0000      	147.0000    	0.0000      	Open  	;
 P-893           	O-AV-312        	J-1551          	4.0990      	6.0000      	149.0000    	0.0000      	Open  	;
 P-894           	J-1073          	J-889           	119.4100    	8.0000      	149.0000    	0.0000      	Open  	;
 P-895           	J-1074          	J-306           	321.2300    	3.0000      	147.0000    	0.0000      	Open  	;
 P-896           	J-405           	J-1075          	22.7000     	6.0000      	142.0000    	0.0000      	Open  	;
 P-897           	J-496           	J-1076          	6379.4500   	6.0000      	142.0000    	0.0000      	Open  	;
 P-898           	I-AV-323        	J-1587          	161.6990    	6.0000      	149.0000    	0.0000      	Open  	;
 P-899           	I-AV-335        	J-615           	20.2190     	6.0000      	149.0000    	0.0000      	Open  	;
 P-9             	J-16            	J-17            	703.9290    	8.0000      	149.0000    	0.0000      	Open  	;
 P-90            	J-25            	O-AV-201        	1117.1890   	6.0000      	149.0000    	0.0000      	Open  	;
 P-900           	I-AV-346        	J-615           	988.4790    	6.0000      	149.0000    	0.0000      	Open  	;
 P-901           	J-1079          	J-1080          	890.9600    	3.0000      	147.0000    	0.0000      	Open  	;
 P-902           	J-1081          	J-1082          	90.3190     	6.0000      	149.0000    	0.0000      	Open  	;
 P-903           	J-1080          	J-1081          	827.9600    	6.0000      	149.0000    	0.0000      	Open  	;
 P-904           	J-1083          	J-1080          	1831.6190   	6.0000      	149.0000    	0.0000      	Open  	;
 P-905           	J-1084          	J-1085          	1418.8390   	3.0000      	147.0000    	0.0000      	Open  	;
 P-906           	J-1086          	J-1087          	656.5590    	6.0000      	149.0000    	0.0000      	Open  	;
 P-907           	J-1087          	J-1083          	18.0490     	6.0000      	149.0000    	0.0000      	Open  	;
 P-908           	J-1088          	J-1086          	515.1400    	6.0000      	149.0000    	0.0000      	Open  	;
 P-909           	J-745           	J-418           	277.4700    	8.0000      	149.0000    	0.0000      	Open  	;
 P-91            	J-163           	J-164           	1130.8800   	16.0000     	142.0000    	0.0000      	Open  	;
 P-910           	I-AV-357        	O-AV-368        	2.6300      	6.0000      	149.0000    	0.0000      	Open  	;
 P-911           	J-417           	J-415           	1199.0200   	8.0000      	149.0000    	0.0000      	Open  	;
 P-912           	J-415           	J-1090          	360.7390    	8.0000      	149.0000    	0.0000      	Open  	;
 P-913           	I-AV-368        	J-1588          	11.4890     	6.0000      	149.0000    	0.0000      	Open  	;
 P-914           	I-AV-379        	J-1586          	393.8090    	6.0000      	149.0000    	0.0000      	Open  	;
 P-915           	I-AV-390        	J-870           	1869.8900   	6.0000      	149.0000    	0.0000      	Open  	;
 P-916           	J-1091          	I-AV-44         	5.3690      	3.0000      	147.0000    	0.0000      	Open  	;
 P-917           	J-1091          	J-1093          	1255.1700   	8.0000      	149.0000    	0.0000      	Open  	;
 P-918           	J-1093          	J-33            	3.4000      	8.0000      	149.0000    	0.0000      	Open  	;
 P-919           	I-AV-412        	J-270           	1945.2390   	6.0000      	149.0000    	0.0000      	Open  	;
 P-92            	O-Slone_Fork_1  	J-37            	133.8090    	4.0000      	147.0000    	0.0000      	Open  	;
 P-920           	J-1095          	O-AV-47         	3.7500      	8.0000      	149.0000    	0.0000      	Open  	;
 P-921           	I-AV-423        	J-270           	227.3990    	3.0000      	147.0000    	0.0000      	Open  	;
 P-922           	I-AV-425        	J-171           	3194.4090   	12.0000     	150.0000    	0.0000      	Open  	;
 P-923           	J-1022          	J-1098          	1810.5790   	12.0000     	142.0000    	0.0000      	Open  	;
 P-924           	J-1098          	O-AV-404        	3.6900      	3.0000      	137.0000    	0.0000      	Open  	;
 P-925           	J-1101          	J-207           	358.0100    	3.0000      	137.0000    	0.0000      	Open  	;
 P-926           	J-1102          	O-AV-405        	805.4690    	3.0000      	137.0000    	0.0000      	Open  	;
 P-927           	I-AV-427        	J-266           	277.3690    	3.0000      	147.0000    	0.0000      	Open  	;
 P-928           	I-AV-428        	I-Rock_Forka    	1839.9100   	8.0000      	149.0000    	0.0000      	Open  	;
 P-929           	I-AV-429        	O-AV-431        	832.7800    	4.0000      	147.0000    	0.0000      	Open  	;
 P-93            	J-167           	J-168           	1115.4300   	16.0000     	150.0000    	0.0000      	Open  	;
 P-930           	I-AV-430        	O-AV-429        	2999.4190   	4.0000      	147.0000    	0.0000      	Open  	;
 P-931           	J-223           	J-1014          	7.4090      	8.0000      	149.0000    	0.0000      	Open  	;
 P-932           	J-314           	J-320           	20.4590     	6.0000      	149.0000    	0.0000      	Open  	;
 P-933           	I-AV-431        	J-1375          	5.4400      	4.0000      	147.0000    	0.0000      	Open  	;
 P-934           	I-AV-432        	J-73            	2114.7500   	6.0000      	149.0000    	0.0000      	Open  	;
 P-935           	J-208           	O-AV-58         	55.5200     	8.0000      	149.0000    	0.0000      	Open  	;
 P-936           	I-AV-433        	J-1145          	7.7600      	6.0000      	149.0000    	0.0000      	Open  	;
 P-937           	O-AV-435        	J-735           	5.1300      	6.0000      	149.0000    	0.0000      	Open  	;
 P-938           	J-233           	J-16            	365.5000    	8.0000      	149.0000    	0.0000      	Open  	;
 P-939           	I-AV-436        	J-687           	15.5690     	6.0000      	149.0000    	0.0000      	Open  	;
 P-94            	J-169           	J-167           	632.0100    	16.0000     	142.0000    	0.0000      	Open  	;
 P-940           	J-1111          	O-AV-465        	2372.8600   	3.0000      	147.0000    	0.0000      	Open  	;
 P-941           	I-AV-438        	J-688           	5.5790      	3.0000      	147.0000    	0.0000      	Open  	;
 P-942           	J-1111          	O-AV-462        	592.8690    	3.0000      	147.0000    	0.0000      	Open  	;
 P-943           	J-1114          	O-AV-464        	203.0390    	3.0000      	147.0000    	0.0000      	Open  	;
 P-944           	J-1115          	J-1113          	2525.6200   	6.0000      	149.0000    	0.0000      	Open  	;
 P-945           	J-1116          	J-1117          	4074.7090   	6.0000      	149.0000    	0.0000      	Open  	;
 P-946           	I-AV-439        	J-171           	8.7890      	12.0000     	150.0000    	0.0000      	Open  	;
 P-947           	J-60            	O-AV-441        	69.1290     	6.0000      	149.0000    	0.0000      	Open  	;
 P-948           	J-1119          	J-669           	2578.3000   	8.0000      	149.0000    	0.0000      	Open  	;
 P-949           	J-1119          	O-AV-413        	2.8190      	8.0000      	149.0000    	0.0000      	Open  	;
 P-95            	O-Trace_Caney   	J-336           	70.6500     	4.0000      	147.0000    	0.0000      	Open  	;
 P-950           	I-AV-441        	O-AV-442        	12.2600     	6.0000      	149.0000    	0.0000      	Open  	;
 P-951           	I-AV-442        	J-740           	4.5700      	6.0000      	149.0000    	0.0000      	Open  	;
 P-952           	J-1122          	J-519           	667.4090    	8.0000      	149.0000    	0.0000      	Open  	;
 P-953           	O-AV-443        	J-414           	352.6900    	3.0000      	147.0000    	0.0000      	Open  	;
 P-954           	J-525           	J-56            	422.4800    	8.0000      	149.0000    	0.0000      	Open  	;
 P-955           	I-AV-444        	J-416           	6.8490      	8.0000      	149.0000    	0.0000      	Open  	;
 P-956           	I-AV-445        	J-945           	1.3400      	8.0000      	149.0000    	0.0000      	Open  	;
 P-957           	J-1125          	I-AV-358        	2.3690      	8.0000      	149.0000    	0.0000      	Open  	;
 P-958           	J-200           	O-AV-355        	19.6000     	8.0000      	149.0000    	0.0000      	Open  	;
 P-959           	I-AV-447        	J-172           	1292.5100   	8.0000      	149.0000    	0.0000      	Open  	;
 P-96            	O-Wiley_Fork    	J-319           	187.1000    	6.0000      	149.0000    	0.0000      	Open  	;
 P-960           	I-AV-449        	O-AV-451        	23.4890     	8.0000      	149.0000    	0.0000      	Open  	;
 P-961           	J-1128          	O-AV-382        	4.5790      	3.0000      	147.0000    	0.0000      	Open  	;
 P-962           	J-1130          	J-1131          	8.2100      	3.0000      	147.0000    	0.0000      	Open  	;
 P-963           	J-711           	J-1117          	1351.5100   	6.0000      	149.0000    	0.0000      	Open  	;
 P-964           	J-651           	J-1132          	1149.2500   	8.0000      	149.0000    	0.0000      	Open  	;
 P-965           	J-1132          	J-1133          	2.1190      	8.0000      	149.0000    	0.0000      	Open  	;
 P-966           	J-326           	J-650           	2.7000      	8.0000      	149.0000    	0.0000      	Open  	;
 P-967           	J-23            	J-326           	2.7790      	8.0000      	149.0000    	0.0000      	Open  	;
 P-968           	O-AV-450        	J-1252          	173.3200    	12.0000     	150.0000    	0.0000      	Open  	;
 P-969           	J-737           	J-735           	1861.4390   	6.0000      	149.0000    	0.0000      	Open  	;
 P-97            	J-173           	J-174           	3325.6390   	12.0000     	150.0000    	0.0000      	Open  	;
 P-970           	J-1136          	J-1137          	1299.7700   	6.0000      	149.0000    	0.0000      	Open  	;
 P-971           	J-1137          	I-AV-435        	845.9790    	6.0000      	149.0000    	0.0000      	Open  	;
 P-972           	J-1138          	J-1139          	1894.8800   	6.0000      	149.0000    	0.0000      	Open  	;
 P-973           	J-1139          	J-1136          	5.8000      	6.0000      	149.0000    	0.0000      	Open  	;
 P-974           	J-1140          	J-1138          	1094.8000   	6.0000      	149.0000    	0.0000      	Open  	;
 P-975           	J-1141          	J-1138          	1162.7090   	3.0000      	147.0000    	0.0000      	Open  	;
 P-976           	J-1082          	J-1142          	214.1000    	6.0000      	149.0000    	0.0000      	Open  	;
 P-977           	J-1143          	J-1140          	6.0990      	6.0000      	149.0000    	0.0000      	Open  	;
 P-978           	J-1142          	J-1143          	9.5290      	6.0000      	149.0000    	0.0000      	Open  	;
 P-979           	J-1144          	J-1082          	660.9090    	3.0000      	147.0000    	0.0000      	Open  	;
 P-98            	J-175           	J-176           	3625.6100   	12.0000     	142.0000    	0.0000      	Open  	;
 P-980           	J-1145          	J-1086          	717.2000    	6.0000      	149.0000    	0.0000      	Open  	;
 P-981           	I-AV-451        	O-AV-447        	11.7890     	8.0000      	149.0000    	0.0000      	Open  	;
 P-982           	J-172           	J-180           	140.2400    	8.0000      	149.0000    	0.0000      	Open  	;
 P-983           	J-1149          	J-1150          	2.2990      	6.0000      	149.0000    	0.0000      	Open  	;
 P-984           	J-1151          	J-313           	1258.9100   	6.0000      	149.0000    	0.0000      	Open  	;
 P-985           	J-316           	J-1151          	2.9100      	6.0000      	149.0000    	0.0000      	Open  	;
 P-986           	J-1152          	J-315           	1813.2190   	6.0000      	149.0000    	0.0000      	Open  	;
 P-987           	J-1153          	J-1152          	60.2400     	6.0000      	149.0000    	0.0000      	Open  	;
 P-988           	J-1154          	J-1153          	1378.3590   	6.0000      	149.0000    	0.0000      	Open  	;
 P-989           	J-281           	J-1154          	3.7590      	6.0000      	149.0000    	0.0000      	Open  	;
 P-99            	J-177           	J-178           	2470.9290   	12.0000     	142.0000    	0.0000      	Open  	;
 P-990           	J-1155          	J-1156          	63.2290     	6.0000      	149.0000    	0.0000      	Open  	;
 P-991           	J-1156          	J-280           	2.3390      	6.0000      	149.0000    	0.0000      	Open  	;
 P-992           	J-1157          	J-987           	1863.7390   	12.0000     	142.0000    	0.0000      	Open  	;
 P-993           	J-183           	J-1157          	20.7900     	12.0000     	142.0000    	0.0000      	Open  	;
 P-994           	J-180           	O-AV-454        	623.0800    	8.0000      	149.0000    	0.0000      	Open  	;
 P-995           	I-AV-454        	J-917           	1.7500      	8.0000      	149.0000    	0.0000      	Open  	;
 P-996           	J-5             	O-AV-71         	1.8600      	8.0000      	149.0000    	0.0000      	Open  	;
 P-997           	J-569           	J-576           	1056.8390   	12.0000     	142.0000    	0.0000      	Open  	;
 P-998           	J-1159          	I-AV-414        	2.5490      	3.0000      	137.0000    	0.0000      	Open  	;
 P-999           	J-184           	J-1360          	679.6590    	8.0000      	149.0000    	0.0000      	Open  	;
 1               	J-262           	1               	44.0000     	8.0000      	149.0000    	0.0000      	Open  	;
 2               	2               	3               	22.0000     	8.0000      	149.0000    	0.0000      	Open  	;
 3               	3               	O-AV-18         	43.0000     	8.0000      	149.0000    	0.0000      	Open  	;
 4               	4               	J-34            	327.0000    	2.0000      	140.0000    	0.0000      	Open  	;
 5               	4               	J-32            	1345.0000   	2.0000      	140.0000    	0.0000      	Open  	;
 6               	5               	I-AV-71         	332.0000    	8.0000      	149.0000    	0.0000      	Open  	;
 7               	7               	J-470           	50.0000     	16.0000     	142.0000    	0.0000      	Open  	;
 8               	6               	J-470           	24.0000     	16.0000     	142.0000    	0.0000      	Open  	;
 9               	7               	O-AV-280        	145.0000    	16.0000     	142.0000    	0.0000      	Open  	;
 10              	8               	J-88            	2000.0000   	4.0000      	147.0000    	0.0000      	Open  	;
 11              	9               	J-299           	5.0000      	6.0000      	149.0000    	0.0000      	Open  	;
 12              	9               	J-715           	5.0000      	6.0000      	149.0000    	0.0000      	Open  	;
 13              	10              	O-AV-132        	20.0000     	8.0000      	149.0000    	0.0000      	Open  	;
 14              	11              	J-263           	500.0000    	6.0000      	149.0000    	0.0000      	Open  	;
 15              	12              	J-25            	100.0000    	6.0000      	149.0000    	0.0000      	Open  	;
 16              	13              	J-349           	165.0000    	4.0000      	147.0000    	0.0000      	Open  	;
 17              	14              	J-483           	65.0000     	12.0000     	150.0000    	0.0000      	Open  	;
 18              	I-AV-188        	O-AV-200        	7           	12.0000     	142.0000    	0.0000      	Open  	;

[PUMPS]
;ID              	Node1           	Node2           	Parameters
 ~@1410_Pump     	I-1410_Pump     	O-1410_Pump     	POWER 60.0000	;
 ~@Dry_Creek     	I-Dry_Creek     	O-Dry_Creek     	POWER 60.0000	;
 ~@Elk_Glenn     	I-Elk_Glenn     	O-Elk_Glenn     	POWER 5.0000	;
 ~@Hollybush     	I-Hollybush     	O-Hollybush     	POWER 5.0000	;
 ~@HWY_80a       	I-HWY_80a       	O-HWY_80a       	POWER 40.0000	;
 ~@Kelly_Fork    	I-Kelly_Fork    	O-Kelly_Fork    	POWER 7.0000	;
 ~@Kelly_Fork_1  	I-Kelly_Fork_1  	O-Kelly_Fork_1  	POWER 10.0000	;
 ~@Knob_Botttom  	I-Knob_Botttom  	O-Knob_Botttom  	POWER 8.0000	;
 ~@Ogden_Vest    	I-Ogden_Vest    	O-Ogden_Vest    	POWER 3.0000	;
 ~@Output_Pump   	I-Output_Pump   	O-Output_Pump   	POWER 15.0000	;
 ~@Perkins_Madden	I-Perkins_Madden	O-Perkins_Madden	POWER 1.0000	;
 ~@Possum_trot   	I-Possum_trot   	O-Possum_trot   	POWER 3.0000	;
 ~@Rock_Forka    	I-Rock_Forka    	O-Rock_Forka    	POWER 15.0000	;
 ~@Short_Fork    	I-Short_Fork    	O-Short_Fork    	POWER 3.0000	;
 ~@Slone_FK      	I-Slone_FK      	O-Slone_FK      	POWER 15.0000	;
 ~@Slone_Fork_1  	I-Slone_Fork_1  	O-Slone_Fork_1  	POWER 3.0000	;
 ~@Trace_Caney   	I-Trace_Caney   	O-Trace_Caney   	POWER 3.0000	;
 ~@Wiley_Fork    	I-Wiley_Fork    	O-Wiley_Fork    	POWER 1.0000	;
 ~@Wilson_Branch 	I-Wilson_Branch 	O-Wilson_Branch 	POWER 5.0000	;
 ~@Wolfepen_Creek	I-Wolfepen_Creek	O-Wolfepen_Creek	POWER 3.0000	;
 ~@Yellow_Creek  	I-Yellow_Creek  	O-Yellow_Creek  	POWER 30.0000	;

[VALVES]
;ID              	Node1           	Node2           	Diameter    	Type	Setting     	MinorLoss   
 ~@AV-1          	I-AV-1          	O-AV-1          	1000.0000   	TCV 	100.0000    	0.0000      	;
 ~@AV-10         	I-AV-10         	O-AV-10         	1000.0000   	TCV 	100.0000    	0.0000      	;
 ~@AV-100        	I-AV-100        	O-AV-100        	1000.0000   	TCV 	100.0000    	0.0000      	;
 ~@AV-102        	I-AV-102        	O-AV-102        	1000.0000   	TCV 	100.0000    	0.0000      	;
 ~@AV-103        	I-AV-103        	O-AV-103        	1000.0000   	TCV 	100.0000    	0.0000      	;
 ~@AV-104        	I-AV-104        	O-AV-104        	1000.0000   	TCV 	100.0000    	0.0000      	;
 ~@AV-105        	I-AV-105        	O-AV-105        	1000.0000   	TCV 	100.0000    	0.0000      	;
 ~@AV-106        	I-AV-106        	O-AV-106        	1000.0000   	TCV 	100.0000    	0.0000      	;
 ~@AV-107        	I-AV-107        	O-AV-107        	1000.0000   	TCV 	100.0000    	0.0000      	;
 ~@AV-108        	I-AV-108        	O-AV-108        	1000.0000   	TCV 	100.0000    	0.0000      	;
 ~@AV-109        	I-AV-109        	O-AV-109        	1000.0000   	TCV 	100.0000    	0.0000      	;
 ~@AV-11         	I-AV-11         	O-AV-11         	1000.0000   	TCV 	100.0000    	0.0000      	;
 ~@AV-110        	I-AV-110        	O-AV-110        	1000.0000   	TCV 	100.0000    	0.0000      	;
 ~@AV-111        	I-AV-111        	O-AV-111        	1000.0000   	TCV 	100.0000    	0.0000      	;
 ~@AV-112        	I-AV-112        	O-AV-112        	1000.0000   	TCV 	100.0000    	0.0000      	;
 ~@AV-113        	I-AV-113        	O-AV-113        	1000.0000   	TCV 	100.0000    	0.0000      	;
 ~@AV-114        	I-AV-114        	O-AV-114        	1000.0000   	TCV 	100.0000    	0.0000      	;
 ~@AV-115        	I-AV-115        	O-AV-115        	1000.0000   	TCV 	100.0000    	0.0000      	;
 ~@AV-116        	I-AV-116        	O-AV-116        	1000.0000   	TCV 	100.0000    	0.0000      	;
 ~@AV-117        	I-AV-117        	O-AV-117        	1000.0000   	TCV 	100.0000    	0.0000      	;
 ~@AV-118        	I-AV-118        	O-AV-118        	1000.0000   	TCV 	100.0000    	0.0000      	;
 ~@AV-119        	I-AV-119        	O-AV-119        	1000.0000   	TCV 	100.0000    	0.0000      	;
 ~@AV-12         	I-AV-12         	O-AV-12         	1000.0000   	TCV 	100.0000    	0.0000      	;
 ~@AV-120        	I-AV-120        	O-AV-120        	1000.0000   	TCV 	100.0000    	0.0000      	;
 ~@AV-121        	I-AV-121        	O-AV-121        	1000.0000   	TCV 	100.0000    	0.0000      	;
 ~@AV-122        	I-AV-122        	O-AV-122        	1000.0000   	TCV 	100.0000    	0.0000      	;
 ~@AV-123        	I-AV-123        	O-AV-123        	1000.0000   	TCV 	100.0000    	0.0000      	;
 ~@AV-124        	I-AV-124        	O-AV-124        	1000.0000   	TCV 	100.0000    	0.0000      	;
 ~@AV-125        	I-AV-125        	O-AV-125        	1000.0000   	TCV 	100.0000    	0.0000      	;
 ~@AV-126        	I-AV-126        	O-AV-126        	1000.0000   	TCV 	100.0000    	0.0000      	;
 ~@AV-127        	I-AV-127        	O-AV-127        	1000.0000   	TCV 	100.0000    	0.0000      	;
 ~@AV-128        	I-AV-128        	O-AV-128        	1000.0000   	TCV 	100.0000    	0.0000      	;
 ~@AV-129        	I-AV-129        	O-AV-129        	1000.0000   	TCV 	100.0000    	0.0000      	;
 ~@AV-13         	I-AV-13         	O-AV-13         	1000.0000   	TCV 	100.0000    	0.0000      	;
 ~@AV-130        	I-AV-130        	O-AV-130        	1000.0000   	TCV 	100.0000    	0.0000      	;
 ~@AV-131        	I-AV-131        	O-AV-131        	1000.0000   	TCV 	100.0000    	0.0000      	;
 ~@AV-132        	I-AV-132        	O-AV-132        	1000.0000   	TCV 	100.0000    	0.0000      	;
 ~@AV-133        	I-AV-133        	O-AV-133        	1000.0000   	TCV 	100.0000    	0.0000      	;
 ~@AV-134        	I-AV-134        	O-AV-134        	1000.0000   	TCV 	100.0000    	0.0000      	;
 ~@AV-135        	I-AV-135        	O-AV-135        	1000.0000   	TCV 	100.0000    	0.0000      	;
 ~@AV-136        	I-AV-136        	O-AV-136        	1000.0000   	TCV 	100.0000    	0.0000      	;
 ~@AV-137        	I-AV-137        	O-AV-137        	1000.0000   	TCV 	100.0000    	0.0000      	;
 ~@AV-138        	I-AV-138        	O-AV-138        	1000.0000   	TCV 	100.0000    	0.0000      	;
 ~@AV-139        	I-AV-139        	O-AV-139        	1000.0000   	TCV 	100.0000    	0.0000      	;
 ~@AV-14         	I-AV-14         	O-AV-14         	1000.0000   	TCV 	100.0000    	0.0000      	;
 ~@AV-140        	I-AV-140        	O-AV-140        	1000.0000   	TCV 	100.0000    	0.0000      	;
 ~@AV-141        	I-AV-141        	O-AV-141        	1000.0000   	TCV 	100.0000    	0.0000      	;
 ~@AV-142        	I-AV-142        	O-AV-142        	1000.0000   	TCV 	100.0000    	0.0000      	;
 ~@AV-143        	I-AV-143        	O-AV-143        	1000.0000   	TCV 	100.0000    	0.0000      	;
 ~@AV-144        	I-AV-144        	O-AV-144        	1000.0000   	TCV 	100.0000    	0.0000      	;
 ~@AV-145        	I-AV-145        	O-AV-145        	1000.0000   	TCV 	100.0000    	0.0000      	;
 ~@AV-147        	I-AV-147        	O-AV-147        	1000.0000   	TCV 	100.0000    	0.0000      	;
 ~@AV-148        	I-AV-148        	O-AV-148        	1000.0000   	TCV 	100.0000    	0.0000      	;
 ~@AV-149        	I-AV-149        	O-AV-149        	1000.0000   	TCV 	100.0000    	0.0000      	;
 ~@AV-15         	I-AV-15         	O-AV-15         	1000.0000   	TCV 	100.0000    	0.0000      	;
 ~@AV-150        	I-AV-150        	O-AV-150        	1000.0000   	TCV 	100.0000    	0.0000      	;
 ~@AV-151        	I-AV-151        	O-AV-151        	1000.0000   	TCV 	100.0000    	0.0000      	;
 ~@AV-152        	I-AV-152        	O-AV-152        	1000.0000   	TCV 	100.0000    	0.0000      	;
 ~@AV-153        	I-AV-153        	O-AV-153        	1000.0000   	TCV 	100.0000    	0.0000      	;
 ~@AV-154        	I-AV-154        	O-AV-154        	1000.0000   	TCV 	100.0000    	0.0000      	;
 ~@AV-155        	I-AV-155        	O-AV-155        	1000.0000   	TCV 	100.0000    	0.0000      	;
 ~@AV-156        	I-AV-156        	O-AV-156        	1000.0000   	TCV 	100.0000    	0.0000      	;
 ~@AV-157        	I-AV-157        	O-AV-157        	1000.0000   	TCV 	100.0000    	0.0000      	;
 ~@AV-158        	I-AV-158        	O-AV-158        	1000.0000   	TCV 	100.0000    	0.0000      	;
 ~@AV-159        	I-AV-159        	O-AV-159        	1000.0000   	TCV 	100.0000    	0.0000      	;
 ~@AV-16         	I-AV-16         	O-AV-16         	1000.0000   	TCV 	100.0000    	0.0000      	;
 ~@AV-160        	I-AV-160        	O-AV-160        	1000.0000   	TCV 	100.0000    	0.0000      	;
 ~@AV-161        	I-AV-161        	O-AV-161        	1000.0000   	TCV 	100.0000    	0.0000      	;
 ~@AV-162        	I-AV-162        	O-AV-162        	1000.0000   	TCV 	100.0000    	0.0000      	;
 ~@AV-163        	I-AV-163        	O-AV-163        	1000.0000   	TCV 	100.0000    	0.0000      	;
 ~@AV-164        	I-AV-164        	O-AV-164        	1000.0000   	TCV 	100.0000    	0.0000      	;
 ~@AV-165        	I-AV-165        	O-AV-165        	1000.0000   	TCV 	100.0000    	0.0000      	;
 ~@AV-166        	I-AV-166        	O-AV-166        	1000.0000   	TCV 	100.0000    	0.0000      	;
 ~@AV-167        	I-AV-167        	O-AV-167        	1000.0000   	TCV 	100.0000    	0.0000      	;
 ~@AV-168        	I-AV-168        	O-AV-168        	1000.0000   	TCV 	100.0000    	0.0000      	;
 ~@AV-169        	I-AV-169        	O-AV-169        	1000.0000   	TCV 	100.0000    	0.0000      	;
 ~@AV-17         	I-AV-17         	O-AV-17         	1000.0000   	TCV 	100.0000    	0.0000      	;
 ~@AV-170        	I-AV-170        	O-AV-170        	1000.0000   	TCV 	100.0000    	0.0000      	;
 ~@AV-171        	I-AV-171        	O-AV-171        	1000.0000   	TCV 	100.0000    	0.0000      	;
 ~@AV-172        	I-AV-172        	O-AV-172        	1000.0000   	TCV 	100.0000    	0.0000      	;
 ~@AV-173        	I-AV-173        	O-AV-173        	1000.0000   	TCV 	100.0000    	0.0000      	;
 ~@AV-174        	I-AV-174        	O-AV-174        	1000.0000   	TCV 	100.0000    	0.0000      	;
 ~@AV-175        	I-AV-175        	O-AV-175        	1000.0000   	TCV 	100.0000    	0.0000      	;
 ~@AV-176        	I-AV-176        	O-AV-176        	1000.0000   	TCV 	100.0000    	0.0000      	;
 ~@AV-177        	I-AV-177        	O-AV-177        	1000.0000   	TCV 	100.0000    	0.0000      	;
 ~@AV-178        	I-AV-178        	O-AV-178        	1000.0000   	TCV 	100.0000    	0.0000      	;
 ~@AV-179        	I-AV-179        	O-AV-179        	1000.0000   	TCV 	100.0000    	0.0000      	;
 ~@AV-18         	I-AV-18         	O-AV-18         	1000.0000   	TCV 	100.0000    	0.0000      	;
 ~@AV-180        	I-AV-180        	O-AV-180        	1000.0000   	TCV 	100.0000    	0.0000      	;
 ~@AV-181        	I-AV-181        	O-AV-181        	1000.0000   	TCV 	100.0000    	0.0000      	;
 ~@AV-182        	I-AV-182        	O-AV-182        	1000.0000   	TCV 	100.0000    	0.0000      	;
 ~@AV-183        	I-AV-183        	O-AV-183        	1000.0000   	TCV 	100.0000    	0.0000      	;
 ~@AV-184        	I-AV-184        	O-AV-184        	1000.0000   	TCV 	100.0000    	0.0000      	;
 ~@AV-185        	I-AV-185        	O-AV-185        	1000.0000   	TCV 	100.0000    	0.0000      	;
 ~@AV-186        	I-AV-186        	O-AV-186        	1000.0000   	TCV 	100.0000    	0.0000      	;
 ~@AV-187        	I-AV-187        	O-AV-187        	1000.0000   	TCV 	100.0000    	0.0000      	;
 ~@AV-188        	I-AV-188        	O-AV-188        	1000.0000   	TCV 	100.0000    	0.0000      	;
 ~@AV-189        	I-AV-189        	O-AV-189        	1000.0000   	TCV 	100.0000    	0.0000      	;
 ~@AV-19         	I-AV-19         	O-AV-19         	1000.0000   	TCV 	100.0000    	0.0000      	;
 ~@AV-190        	I-AV-190        	O-AV-190        	1000.0000   	TCV 	100.0000    	0.0000      	;
 ~@AV-191        	I-AV-191        	O-AV-191        	1000.0000   	TCV 	100.0000    	0.0000      	;
 ~@AV-192        	I-AV-192        	O-AV-192        	1000.0000   	TCV 	100.0000    	0.0000      	;
 ~@AV-193        	I-AV-193        	O-AV-193        	1000.0000   	TCV 	100.0000    	0.0000      	;
 ~@AV-194        	I-AV-194        	O-AV-194        	1000.0000   	TCV 	100.0000    	0.0000      	;
 ~@AV-195        	I-AV-195        	O-AV-195        	1000.0000   	TCV 	100.0000    	0.0000      	;
 ~@AV-196        	I-AV-196        	O-AV-196        	1000.0000   	TCV 	100.0000    	0.0000      	;
 ~@AV-197        	I-AV-197        	O-AV-197        	1000.0000   	TCV 	100.0000    	0.0000      	;
 ~@AV-198        	I-AV-198        	O-AV-198        	1000.0000   	TCV 	100.0000    	0.0000      	;
 ~@AV-199        	I-AV-199        	O-AV-199        	1000.0000   	TCV 	100.0000    	0.0000      	;
 ~@AV-2          	I-AV-2          	O-AV-2          	1000.0000   	TCV 	100.0000    	0.0000      	;
 ~@AV-20         	I-AV-20         	O-AV-20         	1000.0000   	TCV 	100.0000    	0.0000      	;
 ~@AV-201        	I-AV-201        	O-AV-201        	1000.0000   	TCV 	100.0000    	0.0000      	;
 ~@AV-202        	I-AV-202        	O-AV-202        	1000.0000   	TCV 	100.0000    	0.0000      	;
 ~@AV-203        	I-AV-203        	O-AV-203        	1000.0000   	TCV 	100.0000    	0.0000      	;
 ~@AV-204        	I-AV-204        	O-AV-204        	1000.0000   	TCV 	100.0000    	0.0000      	;
 ~@AV-205        	I-AV-205        	O-AV-205        	1000.0000   	TCV 	100.0000    	0.0000      	;
 ~@AV-206        	I-AV-206        	O-AV-206        	1000.0000   	TCV 	100.0000    	0.0000      	;
 ~@AV-207        	I-AV-207        	O-AV-207        	1000.0000   	TCV 	100.0000    	0.0000      	;
 ~@AV-208        	I-AV-208        	O-AV-208        	1000.0000   	TCV 	100.0000    	0.0000      	;
 ~@AV-209        	I-AV-209        	O-AV-209        	1000.0000   	TCV 	100.0000    	0.0000      	;
 ~@AV-21         	I-AV-21         	O-AV-21         	1000.0000   	TCV 	100.0000    	0.0000      	;
 ~@AV-210        	I-AV-210        	O-AV-210        	1000.0000   	TCV 	100.0000    	0.0000      	;
 ~@AV-211        	I-AV-211        	O-AV-211        	1000.0000   	TCV 	100.0000    	0.0000      	;
 ~@AV-212        	I-AV-212        	O-AV-212        	1000.0000   	TCV 	100.0000    	0.0000      	;
 ~@AV-213        	I-AV-213        	O-AV-213        	1000.0000   	TCV 	100.0000    	0.0000      	;
 ~@AV-214        	I-AV-214        	O-AV-214        	1000.0000   	TCV 	100.0000    	0.0000      	;
 ~@AV-215        	I-AV-215        	O-AV-215        	1000.0000   	TCV 	100.0000    	0.0000      	;
 ~@AV-216        	I-AV-216        	O-AV-216        	1000.0000   	TCV 	100.0000    	0.0000      	;
 ~@AV-217        	I-AV-217        	O-AV-217        	1000.0000   	TCV 	100.0000    	0.0000      	;
 ~@AV-218        	I-AV-218        	O-AV-218        	1000.0000   	TCV 	100.0000    	0.0000      	;
 ~@AV-219        	I-AV-219        	O-AV-219        	1000.0000   	TCV 	100.0000    	0.0000      	;
 ~@AV-220        	I-AV-220        	O-AV-220        	1000.0000   	TCV 	100.0000    	0.0000      	;
 ~@AV-221        	I-AV-221        	O-AV-221        	1000.0000   	TCV 	100.0000    	0.0000      	;
 ~@AV-222        	I-AV-222        	O-AV-222        	1000.0000   	TCV 	100.0000    	0.0000      	;
 ~@AV-224        	I-AV-224        	O-AV-224        	1000.0000   	TCV 	100.0000    	0.0000      	;
 ~@AV-225        	I-AV-225        	O-AV-225        	1000.0000   	TCV 	100.0000    	0.0000      	;
 ~@AV-226        	I-AV-226        	O-AV-226        	1000.0000   	TCV 	100.0000    	0.0000      	;
 ~@AV-227        	I-AV-227        	O-AV-227        	1000.0000   	TCV 	100.0000    	0.0000      	;
 ~@AV-228        	I-AV-228        	O-AV-228        	1000.0000   	TCV 	100.0000    	0.0000      	;
 ~@AV-229        	I-AV-229        	O-AV-229        	1000.0000   	TCV 	100.0000    	0.0000      	;
 ~@AV-23         	I-AV-23         	O-AV-23         	1000.0000   	TCV 	100.0000    	0.0000      	;
 ~@AV-230        	I-AV-230        	O-AV-230        	1000.0000   	TCV 	100.0000    	0.0000      	;
 ~@AV-231        	I-AV-231        	O-AV-231        	1000.0000   	TCV 	100.0000    	0.0000      	;
 ~@AV-232        	I-AV-232        	O-AV-232        	1000.0000   	TCV 	100.0000    	0.0000      	;
 ~@AV-233        	I-AV-233        	O-AV-233        	1000.0000   	TCV 	100.0000    	0.0000      	;
 ~@AV-234        	I-AV-234        	O-AV-234        	1000.0000   	TCV 	100.0000    	0.0000      	;
 ~@AV-235        	I-AV-235        	O-AV-235        	1000.0000   	TCV 	100.0000    	0.0000      	;
 ~@AV-236        	I-AV-236        	O-AV-236        	1000.0000   	TCV 	100.0000    	0.0000      	;
 ~@AV-237        	I-AV-237        	O-AV-237        	1000.0000   	TCV 	100.0000    	0.0000      	;
 ~@AV-238        	I-AV-238        	O-AV-238        	1000.0000   	TCV 	100.0000    	0.0000      	;
 ~@AV-239        	I-AV-239        	O-AV-239        	1000.0000   	TCV 	100.0000    	0.0000      	;
 ~@AV-24         	I-AV-24         	O-AV-24         	1000.0000   	TCV 	100.0000    	0.0000      	;
 ~@AV-240        	I-AV-240        	O-AV-240        	1000.0000   	TCV 	100.0000    	0.0000      	;
 ~@AV-241        	I-AV-241        	O-AV-241        	1000.0000   	TCV 	100.0000    	0.0000      	;
 ~@AV-242        	I-AV-242        	O-AV-242        	1000.0000   	TCV 	100.0000    	0.0000      	;
 ~@AV-243        	I-AV-243        	O-AV-243        	1000.0000   	TCV 	100.0000    	0.0000      	;
 ~@AV-244        	I-AV-244        	O-AV-244        	1000.0000   	TCV 	100.0000    	0.0000      	;
 ~@AV-245        	I-AV-245        	O-AV-245        	1000.0000   	TCV 	100.0000    	0.0000      	;
 ~@AV-246        	I-AV-246        	O-AV-246        	1000.0000   	TCV 	100.0000    	0.0000      	;
 ~@AV-247        	I-AV-247        	O-AV-247        	1000.0000   	TCV 	100.0000    	0.0000      	;
 ~@AV-248        	I-AV-248        	O-AV-248        	1000.0000   	TCV 	100.0000    	0.0000      	;
 ~@AV-249        	I-AV-249        	O-AV-249        	1000.0000   	TCV 	100.0000    	0.0000      	;
 ~@AV-25         	I-AV-25         	O-AV-25         	1000.0000   	TCV 	100.0000    	0.0000      	;
 ~@AV-250        	I-AV-250        	O-AV-250        	1000.0000   	TCV 	100.0000    	0.0000      	;
 ~@AV-251        	I-AV-251        	O-AV-251        	1000.0000   	TCV 	100.0000    	0.0000      	;
 ~@AV-252        	I-AV-252        	O-AV-252        	1000.0000   	TCV 	100.0000    	0.0000      	;
 ~@AV-253        	I-AV-253        	O-AV-253        	1000.0000   	TCV 	100.0000    	0.0000      	;
 ~@AV-254        	I-AV-254        	O-AV-254        	1000.0000   	TCV 	100.0000    	0.0000      	;
 ~@AV-255        	I-AV-255        	O-AV-255        	1000.0000   	TCV 	100.0000    	0.0000      	;
 ~@AV-256        	I-AV-256        	O-AV-256        	1000.0000   	TCV 	100.0000    	0.0000      	;
 ~@AV-257        	I-AV-257        	O-AV-257        	1000.0000   	TCV 	100.0000    	0.0000      	;
 ~@AV-258        	I-AV-258        	O-AV-258        	1000.0000   	TCV 	100.0000    	0.0000      	;
 ~@AV-259        	I-AV-259        	O-AV-259        	1000.0000   	TCV 	100.0000    	0.0000      	;
 ~@AV-26         	I-AV-26         	O-AV-26         	1000.0000   	TCV 	100.0000    	0.0000      	;
 ~@AV-260        	I-AV-260        	O-AV-260        	1000.0000   	TCV 	100.0000    	0.0000      	;
 ~@AV-261        	I-AV-261        	O-AV-261        	1000.0000   	TCV 	100.0000    	0.0000      	;
 ~@AV-262        	I-AV-262        	O-AV-262        	1000.0000   	TCV 	100.0000    	0.0000      	;
 ~@AV-263        	I-AV-263        	O-AV-263        	1000.0000   	TCV 	100.0000    	0.0000      	;
 ~@AV-264        	I-AV-264        	O-AV-264        	1000.0000   	TCV 	100.0000    	0.0000      	;
 ~@AV-265        	I-AV-265        	O-AV-265        	1000.0000   	TCV 	100.0000    	0.0000      	;
 ~@AV-266        	I-AV-266        	O-AV-266        	1000.0000   	TCV 	100.0000    	0.0000      	;
 ~@AV-267        	I-AV-267        	O-AV-267        	1000.0000   	TCV 	100.0000    	0.0000      	;
 ~@AV-268        	I-AV-268        	O-AV-268        	1000.0000   	TCV 	100.0000    	0.0000      	;
 ~@AV-269        	I-AV-269        	O-AV-269        	1000.0000   	TCV 	100.0000    	0.0000      	;
 ~@AV-27         	I-AV-27         	O-AV-27         	1000.0000   	TCV 	100.0000    	0.0000      	;
 ~@AV-270        	I-AV-270        	O-AV-270        	1000.0000   	TCV 	100.0000    	0.0000      	;
 ~@AV-271        	I-AV-271        	O-AV-271        	1000.0000   	TCV 	100.0000    	0.0000      	;
 ~@AV-272        	I-AV-272        	O-AV-272        	1000.0000   	TCV 	100.0000    	0.0000      	;
 ~@AV-273        	I-AV-273        	O-AV-273        	1000.0000   	TCV 	100.0000    	0.0000      	;
 ~@AV-274        	I-AV-274        	O-AV-274        	1000.0000   	TCV 	100.0000    	0.0000      	;
 ~@AV-275        	I-AV-275        	O-AV-275        	1000.0000   	TCV 	100.0000    	0.0000      	;
 ~@AV-276        	I-AV-276        	O-AV-276        	1000.0000   	TCV 	100.0000    	0.0000      	;
 ~@AV-277        	I-AV-277        	O-AV-277        	1000.0000   	TCV 	100.0000    	0.0000      	;
 ~@AV-278        	I-AV-278        	O-AV-278        	1000.0000   	TCV 	100.0000    	0.0000      	;
 ~@AV-279        	I-AV-279        	O-AV-279        	1000.0000   	TCV 	100.0000    	0.0000      	;
 ~@AV-28         	I-AV-28         	O-AV-28         	1000.0000   	TCV 	100.0000    	0.0000      	;
 ~@AV-280        	I-AV-280        	O-AV-280        	1000.0000   	TCV 	100.0000    	0.0000      	;
 ~@AV-281        	I-AV-281        	O-AV-281        	1000.0000   	TCV 	100.0000    	0.0000      	;
 ~@AV-282        	I-AV-282        	O-AV-282        	1000.0000   	TCV 	100.0000    	0.0000      	;
 ~@AV-283        	I-AV-283        	O-AV-283        	1000.0000   	TCV 	100.0000    	0.0000      	;
 ~@AV-284        	I-AV-284        	O-AV-284        	1000.0000   	TCV 	100.0000    	0.0000      	;
 ~@AV-286        	I-AV-286        	O-AV-286        	1000.0000   	TCV 	100.0000    	0.0000      	;
 ~@AV-287        	I-AV-287        	O-AV-287        	1000.0000   	TCV 	100.0000    	0.0000      	;
 ~@AV-288        	I-AV-288        	O-AV-288        	1000.0000   	TCV 	100.0000    	0.0000      	;
 ~@AV-289        	I-AV-289        	O-AV-289        	1000.0000   	TCV 	100.0000    	0.0000      	;
 ~@AV-29         	I-AV-29         	O-AV-29         	1000.0000   	TCV 	100.0000    	0.0000      	;
 ~@AV-290        	I-AV-290        	O-AV-290        	1000.0000   	TCV 	100.0000    	0.0000      	;
 ~@AV-291        	I-AV-291        	O-AV-291        	1000.0000   	TCV 	100.0000    	0.0000      	;
 ~@AV-292        	I-AV-292        	O-AV-292        	1000.0000   	TCV 	100.0000    	0.0000      	;
 ~@AV-293        	I-AV-293        	O-AV-293        	1000.0000   	TCV 	100.0000    	0.0000      	;
 ~@AV-294        	I-AV-294        	O-AV-294        	1000.0000   	TCV 	100.0000    	0.0000      	;
 ~@AV-295        	I-AV-295        	O-AV-295        	1000.0000   	TCV 	100.0000    	0.0000      	;
 ~@AV-296        	I-AV-296        	O-AV-296        	1000.0000   	TCV 	100.0000    	0.0000      	;
 ~@AV-297        	I-AV-297        	O-AV-297        	1000.0000   	TCV 	100.0000    	0.0000      	;
 ~@AV-298        	I-AV-298        	O-AV-298        	1000.0000   	TCV 	100.0000    	0.0000      	;
 ~@AV-3          	I-AV-3          	O-AV-3          	1000.0000   	TCV 	100.0000    	0.0000      	;
 ~@AV-300        	I-AV-300        	O-AV-300        	1000.0000   	TCV 	100.0000    	0.0000      	;
 ~@AV-301        	I-AV-301        	O-AV-301        	1000.0000   	TCV 	100.0000    	0.0000      	;
 ~@AV-302        	I-AV-302        	O-AV-302        	1000.0000   	TCV 	100.0000    	0.0000      	;
 ~@AV-303        	I-AV-303        	O-AV-303        	1000.0000   	TCV 	100.0000    	0.0000      	;
 ~@AV-304        	I-AV-304        	O-AV-304        	1000.0000   	TCV 	100.0000    	0.0000      	;
 ~@AV-305        	I-AV-305        	O-AV-305        	1000.0000   	TCV 	100.0000    	0.0000      	;
 ~@AV-306        	I-AV-306        	O-AV-306        	1000.0000   	TCV 	100.0000    	0.0000      	;
 ~@AV-307        	I-AV-307        	O-AV-307        	1000.0000   	TCV 	100.0000    	0.0000      	;
 ~@AV-308        	I-AV-308        	O-AV-308        	1000.0000   	TCV 	100.0000    	0.0000      	;
 ~@AV-309        	I-AV-309        	O-AV-309        	1000.0000   	TCV 	100.0000    	0.0000      	;
 ~@AV-310        	I-AV-310        	O-AV-310        	1000.0000   	TCV 	100.0000    	0.0000      	;
 ~@AV-312        	I-AV-312        	O-AV-312        	1000.0000   	TCV 	100.0000    	0.0000      	;
 ~@AV-313        	I-AV-313        	O-AV-313        	1000.0000   	TCV 	100.0000    	0.0000      	;
 ~@AV-314        	I-AV-314        	O-AV-314        	1000.0000   	TCV 	100.0000    	0.0000      	;
 ~@AV-315        	I-AV-315        	O-AV-315        	1000.0000   	TCV 	100.0000    	0.0000      	;
 ~@AV-316        	I-AV-316        	O-AV-316        	1000.0000   	TCV 	100.0000    	0.0000      	;
 ~@AV-317        	I-AV-317        	O-AV-317        	1000.0000   	TCV 	100.0000    	0.0000      	;
 ~@AV-318        	I-AV-318        	O-AV-318        	1000.0000   	TCV 	100.0000    	0.0000      	;
 ~@AV-319        	I-AV-319        	O-AV-319        	1000.0000   	TCV 	100.0000    	0.0000      	;
 ~@AV-320        	I-AV-320        	O-AV-320        	1000.0000   	TCV 	100.0000    	0.0000      	;
 ~@AV-321        	I-AV-321        	O-AV-321        	1000.0000   	TCV 	100.0000    	0.0000      	;
 ~@AV-322        	I-AV-322        	O-AV-322        	1000.0000   	TCV 	100.0000    	0.0000      	;
 ~@AV-323        	I-AV-323        	O-AV-323        	1000.0000   	TCV 	100.0000    	0.0000      	;
 ~@AV-325        	I-AV-325        	O-AV-325        	1000.0000   	TCV 	100.0000    	0.0000      	;
 ~@AV-326        	I-AV-326        	O-AV-326        	1000.0000   	TCV 	100.0000    	0.0000      	;
 ~@AV-327        	I-AV-327        	O-AV-327        	1000.0000   	TCV 	100.0000    	0.0000      	;
 ~@AV-328        	I-AV-328        	O-AV-328        	1000.0000   	TCV 	100.0000    	0.0000      	;
 ~@AV-329        	I-AV-329        	O-AV-329        	1000.0000   	TCV 	100.0000    	0.0000      	;
 ~@AV-330        	I-AV-330        	O-AV-330        	1000.0000   	TCV 	100.0000    	0.0000      	;
 ~@AV-331        	I-AV-331        	O-AV-331        	1000.0000   	TCV 	100.0000    	0.0000      	;
 ~@AV-332        	I-AV-332        	O-AV-332        	1000.0000   	TCV 	100.0000    	0.0000      	;
 ~@AV-333        	I-AV-333        	O-AV-333        	1000.0000   	TCV 	100.0000    	0.0000      	;
 ~@AV-335        	I-AV-335        	O-AV-335        	1000.0000   	TCV 	100.0000    	0.0000      	;
 ~@AV-336        	I-AV-336        	O-AV-336        	1000.0000   	TCV 	100.0000    	0.0000      	;
 ~@AV-337        	I-AV-337        	O-AV-337        	1000.0000   	TCV 	100.0000    	0.0000      	;
 ~@AV-338        	I-AV-338        	O-AV-338        	1000.0000   	TCV 	100.0000    	0.0000      	;
 ~@AV-339        	I-AV-339        	O-AV-339        	1000.0000   	TCV 	100.0000    	0.0000      	;
 ~@AV-34         	I-AV-34         	O-AV-34         	1000.0000   	TCV 	100.0000    	0.0000      	;
 ~@AV-340        	I-AV-340        	O-AV-340        	1000.0000   	TCV 	100.0000    	0.0000      	;
 ~@AV-341        	I-AV-341        	O-AV-341        	1000.0000   	TCV 	100.0000    	0.0000      	;
 ~@AV-342        	I-AV-342        	O-AV-342        	1000.0000   	TCV 	100.0000    	0.0000      	;
 ~@AV-343        	I-AV-343        	O-AV-343        	1000.0000   	TCV 	100.0000    	0.0000      	;
 ~@AV-344        	I-AV-344        	O-AV-344        	1000.0000   	TCV 	100.0000    	0.0000      	;
 ~@AV-345        	I-AV-345        	O-AV-345        	1000.0000   	TCV 	100.0000    	0.0000      	;
 ~@AV-346        	I-AV-346        	O-AV-346        	1000.0000   	TCV 	100.0000    	0.0000      	;
 ~@AV-347        	I-AV-347        	O-AV-347        	1000.0000   	TCV 	100.0000    	0.0000      	;
 ~@AV-348        	I-AV-348        	O-AV-348        	1000.0000   	TCV 	100.0000    	0.0000      	;
 ~@AV-35         	I-AV-35         	O-AV-35         	1000.0000   	TCV 	100.0000    	0.0000      	;
 ~@AV-350        	I-AV-350        	O-AV-350        	1000.0000   	TCV 	100.0000    	0.0000      	;
 ~@AV-351        	I-AV-351        	O-AV-351        	1000.0000   	TCV 	100.0000    	0.0000      	;
 ~@AV-353        	I-AV-353        	O-AV-353        	1000.0000   	TCV 	100.0000    	0.0000      	;
 ~@AV-354        	I-AV-354        	O-AV-354        	1000.0000   	TCV 	100.0000    	0.0000      	;
 ~@AV-355        	I-AV-355        	O-AV-355        	1000.0000   	TCV 	100.0000    	0.0000      	;
 ~@AV-356        	I-AV-356        	O-AV-356        	1000.0000   	TCV 	100.0000    	0.0000      	;
 ~@AV-357        	I-AV-357        	O-AV-357        	1000.0000   	TCV 	100.0000    	0.0000      	;
 ~@AV-358        	I-AV-358        	O-AV-358        	1000.0000   	TCV 	100.0000    	0.0000      	;
 ~@AV-359        	I-AV-359        	O-AV-359        	1000.0000   	TCV 	100.0000    	0.0000      	;
 ~@AV-36         	I-AV-36         	O-AV-36         	1000.0000   	TCV 	100.0000    	0.0000      	;
 ~@AV-360        	I-AV-360        	O-AV-360        	1000.0000   	TCV 	100.0000    	0.0000      	;
 ~@AV-361        	I-AV-361        	O-AV-361        	1000.0000   	TCV 	100.0000    	0.0000      	;
 ~@AV-364        	I-AV-364        	O-AV-364        	1000.0000   	TCV 	100.0000    	0.0000      	;
 ~@AV-365        	I-AV-365        	O-AV-365        	1000.0000   	TCV 	100.0000    	0.0000      	;
 ~@AV-366        	I-AV-366        	O-AV-366        	1000.0000   	TCV 	100.0000    	0.0000      	;
 ~@AV-367        	I-AV-367        	O-AV-367        	1000.0000   	TCV 	100.0000    	0.0000      	;
 ~@AV-368        	I-AV-368        	O-AV-368        	1000.0000   	TCV 	100.0000    	0.0000      	;
 ~@AV-369        	I-AV-369        	O-AV-369        	1000.0000   	TCV 	100.0000    	0.0000      	;
 ~@AV-37         	I-AV-37         	O-AV-37         	1000.0000   	TCV 	100.0000    	0.0000      	;
 ~@AV-370        	I-AV-370        	O-AV-370        	1000.0000   	TCV 	100.0000    	0.0000      	;
 ~@AV-371        	I-AV-371        	O-AV-371        	1000.0000   	TCV 	100.0000    	0.0000      	;
 ~@AV-372        	I-AV-372        	O-AV-372        	1000.0000   	TCV 	100.0000    	0.0000      	;
 ~@AV-373        	I-AV-373        	O-AV-373        	1000.0000   	TCV 	100.0000    	0.0000      	;
 ~@AV-374        	I-AV-374        	O-AV-374        	1000.0000   	TCV 	100.0000    	0.0000      	;
 ~@AV-375        	I-AV-375        	O-AV-375        	1000.0000   	TCV 	100.0000    	0.0000      	;
 ~@AV-376        	I-AV-376        	O-AV-376        	1000.0000   	TCV 	100.0000    	0.0000      	;
 ~@AV-377        	I-AV-377        	O-AV-377        	1000.0000   	TCV 	100.0000    	0.0000      	;
 ~@AV-378        	I-AV-378        	O-AV-378        	1000.0000   	TCV 	100.0000    	0.0000      	;
 ~@AV-379        	I-AV-379        	O-AV-379        	1000.0000   	TCV 	100.0000    	0.0000      	;
 ~@AV-38         	I-AV-38         	O-AV-38         	1000.0000   	TCV 	100.0000    	0.0000      	;
 ~@AV-380        	I-AV-380        	O-AV-380        	1000.0000   	TCV 	100.0000    	0.0000      	;
 ~@AV-381        	I-AV-381        	O-AV-381        	1000.0000   	TCV 	100.0000    	0.0000      	;
 ~@AV-382        	I-AV-382        	O-AV-382        	1000.0000   	TCV 	100.0000    	0.0000      	;
 ~@AV-383        	I-AV-383        	O-AV-383        	1000.0000   	TCV 	100.0000    	0.0000      	;
 ~@AV-384        	I-AV-384        	O-AV-384        	1000.0000   	TCV 	100.0000    	0.0000      	;
 ~@AV-385        	I-AV-385        	O-AV-385        	1000.0000   	TCV 	100.0000    	0.0000      	;
 ~@AV-388        	I-AV-388        	O-AV-388        	1000.0000   	TCV 	100.0000    	0.0000      	;
 ~@AV-389        	I-AV-389        	O-AV-389        	1000.0000   	TCV 	100.0000    	0.0000      	;
 ~@AV-39         	I-AV-39         	O-AV-39         	1000.0000   	TCV 	100.0000    	0.0000      	;
 ~@AV-390        	I-AV-390        	O-AV-390        	1000.0000   	TCV 	100.0000    	0.0000      	;
 ~@AV-393        	I-AV-393        	O-AV-393        	1000.0000   	TCV 	100.0000    	0.0000      	;
 ~@AV-394        	I-AV-394        	O-AV-394        	1000.0000   	TCV 	100.0000    	0.0000      	;
 ~@AV-395        	I-AV-395        	O-AV-395        	1000.0000   	TCV 	100.0000    	0.0000      	;
 ~@AV-396        	I-AV-396        	O-AV-396        	1000.0000   	TCV 	100.0000    	0.0000      	;
 ~@AV-398        	I-AV-398        	O-AV-398        	1000.0000   	TCV 	100.0000    	0.0000      	;
 ~@AV-399        	I-AV-399        	O-AV-399        	1000.0000   	TCV 	100.0000    	0.0000      	;
 ~@AV-40         	I-AV-40         	O-AV-40         	1000.0000   	TCV 	100.0000    	0.0000      	;
 ~@AV-400        	I-AV-400        	O-AV-400        	1000.0000   	TCV 	100.0000    	0.0000      	;
 ~@AV-401        	I-AV-401        	O-AV-401        	1000.0000   	TCV 	100.0000    	0.0000      	;
 ~@AV-402        	I-AV-402        	O-AV-402        	1000.0000   	TCV 	100.0000    	0.0000      	;
 ~@AV-403        	I-AV-403        	O-AV-403        	1000.0000   	TCV 	100.0000    	0.0000      	;
 ~@AV-404        	I-AV-404        	O-AV-404        	1000.0000   	TCV 	100.0000    	0.0000      	;
 ~@AV-405        	I-AV-405        	O-AV-405        	1000.0000   	TCV 	100.0000    	0.0000      	;
 ~@AV-407        	I-AV-407        	O-AV-407        	1000.0000   	TCV 	100.0000    	0.0000      	;
 ~@AV-408        	I-AV-408        	O-AV-408        	1000.0000   	TCV 	100.0000    	0.0000      	;
 ~@AV-409        	I-AV-409        	O-AV-409        	1000.0000   	TCV 	100.0000    	0.0000      	;
 ~@AV-41         	I-AV-41         	O-AV-41         	1000.0000   	TCV 	100.0000    	0.0000      	;
 ~@AV-410        	I-AV-410        	O-AV-410        	1000.0000   	TCV 	100.0000    	0.0000      	;
 ~@AV-411        	I-AV-411        	O-AV-411        	1000.0000   	TCV 	100.0000    	0.0000      	;
 ~@AV-412        	I-AV-412        	O-AV-412        	1000.0000   	TCV 	100.0000    	0.0000      	;
 ~@AV-413        	I-AV-413        	O-AV-413        	1000.0000   	TCV 	100.0000    	0.0000      	;
 ~@AV-414        	I-AV-414        	O-AV-414        	1000.0000   	TCV 	100.0000    	0.0000      	;
 ~@AV-416        	I-AV-416        	O-AV-416        	1000.0000   	TCV 	100.0000    	0.0000      	;
 ~@AV-418        	I-AV-418        	O-AV-418        	1000.0000   	TCV 	100.0000    	0.0000      	;
 ~@AV-42         	I-AV-42         	O-AV-42         	1000.0000   	TCV 	100.0000    	0.0000      	;
 ~@AV-420        	I-AV-420        	O-AV-420        	1000.0000   	TCV 	100.0000    	0.0000      	;
 ~@AV-421        	I-AV-421        	O-AV-421        	1000.0000   	TCV 	100.0000    	0.0000      	;
 ~@AV-422        	I-AV-422        	O-AV-422        	1000.0000   	TCV 	100.0000    	0.0000      	;
 ~@AV-423        	I-AV-423        	O-AV-423        	1000.0000   	TCV 	100.0000    	0.0000      	;
 ~@AV-424        	I-AV-424        	O-AV-424        	1000.0000   	TCV 	100.0000    	0.0000      	;
 ~@AV-425        	I-AV-425        	O-AV-425        	1000.0000   	TCV 	100.0000    	0.0000      	;
 ~@AV-427        	I-AV-427        	O-AV-427        	1000.0000   	TCV 	100.0000    	0.0000      	;
 ~@AV-428        	I-AV-428        	O-AV-428        	1000.0000   	TCV 	100.0000    	0.0000      	;
 ~@AV-429        	I-AV-429        	O-AV-429        	1000.0000   	TCV 	100.0000    	0.0000      	;
 ~@AV-430        	I-AV-430        	O-AV-430        	1000.0000   	TCV 	100.0000    	0.0000      	;
 ~@AV-431        	I-AV-431        	O-AV-431        	1000.0000   	TCV 	100.0000    	0.0000      	;
 ~@AV-432        	I-AV-432        	O-AV-432        	1000.0000   	TCV 	100.0000    	0.0000      	;
 ~@AV-433        	I-AV-433        	O-AV-433        	1000.0000   	TCV 	100.0000    	0.0000      	;
 ~@AV-434        	I-AV-434        	O-AV-434        	1000.0000   	TCV 	100.0000    	0.0000      	;
 ~@AV-435        	I-AV-435        	O-AV-435        	1000.0000   	TCV 	100.0000    	0.0000      	;
 ~@AV-436        	I-AV-436        	O-AV-436        	1000.0000   	TCV 	100.0000    	0.0000      	;
 ~@AV-437        	I-AV-437        	O-AV-437        	1000.0000   	TCV 	100.0000    	0.0000      	;
 ~@AV-438        	I-AV-438        	O-AV-438        	1000.0000   	TCV 	100.0000    	0.0000      	;
 ~@AV-439        	I-AV-439        	O-AV-439        	1000.0000   	TCV 	100.0000    	0.0000      	;
 ~@AV-44         	I-AV-44         	O-AV-44         	1000.0000   	TCV 	100.0000    	0.0000      	;
 ~@AV-441        	I-AV-441        	O-AV-441        	1000.0000   	TCV 	100.0000    	0.0000      	;
 ~@AV-442        	I-AV-442        	O-AV-442        	1000.0000   	TCV 	100.0000    	0.0000      	;
 ~@AV-443        	I-AV-443        	O-AV-443        	1000.0000   	TCV 	100.0000    	0.0000      	;
 ~@AV-444        	I-AV-444        	O-AV-444        	1000.0000   	TCV 	100.0000    	0.0000      	;
 ~@AV-445        	I-AV-445        	O-AV-445        	1000.0000   	TCV 	100.0000    	0.0000      	;
 ~@AV-446        	I-AV-446        	O-AV-446        	1000.0000   	TCV 	100.0000    	0.0000      	;
 ~@AV-447        	I-AV-447        	O-AV-447        	1000.0000   	TCV 	100.0000    	0.0000      	;
 ~@AV-448        	I-AV-448        	O-AV-448        	1000.0000   	TCV 	100.0000    	0.0000      	;
 ~@AV-449        	I-AV-449        	O-AV-449        	1000.0000   	TCV 	100.0000    	0.0000      	;
 ~@AV-450        	I-AV-450        	O-AV-450        	1000.0000   	TCV 	100.0000    	0.0000      	;
 ~@AV-451        	I-AV-451        	O-AV-451        	1000.0000   	TCV 	100.0000    	0.0000      	;
 ~@AV-454        	I-AV-454        	O-AV-454        	1000.0000   	TCV 	100.0000    	0.0000      	;
 ~@AV-456        	I-AV-456        	O-AV-456        	1000.0000   	TCV 	100.0000    	0.0000      	;
 ~@AV-457        	I-AV-457        	O-AV-457        	1000.0000   	TCV 	100.0000    	0.0000      	;
 ~@AV-458        	I-AV-458        	O-AV-458        	1000.0000   	TCV 	100.0000    	0.0000      	;
 ~@AV-459        	I-AV-459        	O-AV-459        	1000.0000   	TCV 	100.0000    	0.0000      	;
 ~@AV-461        	I-AV-461        	O-AV-461        	1000.0000   	TCV 	100.0000    	0.0000      	;
 ~@AV-462        	I-AV-462        	O-AV-462        	1000.0000   	TCV 	100.0000    	0.0000      	;
 ~@AV-463        	I-AV-463        	O-AV-463        	1000.0000   	TCV 	100.0000    	0.0000      	;
 ~@AV-464        	I-AV-464        	O-AV-464        	1000.0000   	TCV 	100.0000    	0.0000      	;
 ~@AV-465        	I-AV-465        	O-AV-465        	1000.0000   	TCV 	100.0000    	0.0000      	;
 ~@AV-466        	I-AV-466        	O-AV-466        	1000.0000   	TCV 	100.0000    	0.0000      	;
 ~@AV-467        	I-AV-467        	O-AV-467        	1000.0000   	TCV 	100.0000    	0.0000      	;
 ~@AV-468        	I-AV-468        	O-AV-468        	1000.0000   	TCV 	100.0000    	0.0000      	;
 ~@AV-469        	I-AV-469        	O-AV-469        	1000.0000   	TCV 	100.0000    	0.0000      	;
 ~@AV-47         	I-AV-47         	O-AV-47         	1000.0000   	TCV 	100.0000    	0.0000      	;
 ~@AV-470        	I-AV-470        	O-AV-470        	1000.0000   	TCV 	100.0000    	0.0000      	;
 ~@AV-472        	I-AV-472        	O-AV-472        	1000.0000   	TCV 	100.0000    	0.0000      	;
 ~@AV-473        	I-AV-473        	O-AV-473        	1000.0000   	TCV 	100.0000    	0.0000      	;
 ~@AV-474        	I-AV-474        	O-AV-474        	1000.0000   	TCV 	100.0000    	0.0000      	;
 ~@AV-475        	I-AV-475        	O-AV-475        	1000.0000   	TCV 	100.0000    	0.0000      	;
 ~@AV-476        	I-AV-476        	O-AV-476        	1000.0000   	TCV 	100.0000    	0.0000      	;
 ~@AV-477        	I-AV-477        	O-AV-477        	1000.0000   	TCV 	100.0000    	0.0000      	;
 ~@AV-478        	I-AV-478        	O-AV-478        	1000.0000   	TCV 	100.0000    	0.0000      	;
 ~@AV-479        	I-AV-479        	O-AV-479        	1000.0000   	TCV 	100.0000    	0.0000      	;
 ~@AV-48         	I-AV-48         	O-AV-48         	1000.0000   	TCV 	100.0000    	0.0000      	;
 ~@AV-480        	I-AV-480        	O-AV-480        	1000.0000   	TCV 	100.0000    	0.0000      	;
 ~@AV-49         	I-AV-49         	O-AV-49         	1000.0000   	TCV 	100.0000    	0.0000      	;
 ~@AV-5          	I-AV-5          	O-AV-5          	1000.0000   	TCV 	100.0000    	0.0000      	;
 ~@AV-50         	I-AV-50         	O-AV-50         	1000.0000   	TCV 	100.0000    	0.0000      	;
 ~@AV-51         	I-AV-51         	O-AV-51         	1000.0000   	TCV 	100.0000    	0.0000      	;
 ~@AV-52         	I-AV-52         	O-AV-52         	1000.0000   	TCV 	100.0000    	0.0000      	;
 ~@AV-53         	I-AV-53         	O-AV-53         	1000.0000   	TCV 	100.0000    	0.0000      	;
 ~@AV-54         	I-AV-54         	O-AV-54         	1000.0000   	TCV 	100.0000    	0.0000      	;
 ~@AV-55         	I-AV-55         	O-AV-55         	1000.0000   	TCV 	100.0000    	0.0000      	;
 ~@AV-56         	I-AV-56         	O-AV-56         	1000.0000   	TCV 	100.0000    	0.0000      	;
 ~@AV-58         	I-AV-58         	O-AV-58         	1000.0000   	TCV 	100.0000    	0.0000      	;
 ~@AV-59         	I-AV-59         	O-AV-59         	1000.0000   	TCV 	100.0000    	0.0000      	;
 ~@AV-6          	I-AV-6          	O-AV-6          	1000.0000   	TCV 	100.0000    	0.0000      	;
 ~@AV-60         	I-AV-60         	O-AV-60         	1000.0000   	TCV 	100.0000    	0.0000      	;
 ~@AV-61         	I-AV-61         	O-AV-61         	1000.0000   	TCV 	100.0000    	0.0000      	;
 ~@AV-62         	I-AV-62         	O-AV-62         	1000.0000   	TCV 	100.0000    	0.0000      	;
 ~@AV-63         	I-AV-63         	O-AV-63         	1000.0000   	TCV 	100.0000    	0.0000      	;
 ~@AV-64         	I-AV-64         	O-AV-64         	1000.0000   	TCV 	100.0000    	0.0000      	;
 ~@AV-65         	I-AV-65         	O-AV-65         	1000.0000   	TCV 	100.0000    	0.0000      	;
 ~@AV-66         	I-AV-66         	O-AV-66         	1000.0000   	TCV 	100.0000    	0.0000      	;
 ~@AV-67         	I-AV-67         	O-AV-67         	1000.0000   	TCV 	100.0000    	0.0000      	;
 ~@AV-68         	I-AV-68         	O-AV-68         	1000.0000   	TCV 	100.0000    	0.0000      	;
 ~@AV-69         	I-AV-69         	O-AV-69         	1000.0000   	TCV 	100.0000    	0.0000      	;
 ~@AV-7          	I-AV-7          	O-AV-7          	1000.0000   	TCV 	100.0000    	0.0000      	;
 ~@AV-70         	I-AV-70         	O-AV-70         	1000.0000   	TCV 	100.0000    	0.0000      	;
 ~@AV-71         	I-AV-71         	O-AV-71         	1000.0000   	TCV 	100.0000    	0.0000      	;
 ~@AV-72         	I-AV-72         	O-AV-72         	1000.0000   	TCV 	100.0000    	0.0000      	;
 ~@AV-73         	I-AV-73         	O-AV-73         	1000.0000   	TCV 	100.0000    	0.0000      	;
 ~@AV-74         	I-AV-74         	O-AV-74         	1000.0000   	TCV 	100.0000    	0.0000      	;
 ~@AV-75         	I-AV-75         	O-AV-75         	1000.0000   	TCV 	100.0000    	0.0000      	;
 ~@AV-76         	I-AV-76         	O-AV-76         	1000.0000   	TCV 	100.0000    	0.0000      	;
 ~@AV-77         	I-AV-77         	O-AV-77         	1000.0000   	TCV 	100.0000    	0.0000      	;
 ~@AV-78         	I-AV-78         	O-AV-78         	1000.0000   	TCV 	100.0000    	0.0000      	;
 ~@AV-79         	I-AV-79         	O-AV-79         	1000.0000   	TCV 	100.0000    	0.0000      	;
 ~@AV-8          	I-AV-8          	O-AV-8          	1000.0000   	TCV 	100.0000    	0.0000      	;
 ~@AV-80         	I-AV-80         	O-AV-80         	1000.0000   	TCV 	100.0000    	0.0000      	;
 ~@AV-81         	I-AV-81         	O-AV-81         	1000.0000   	TCV 	100.0000    	0.0000      	;
 ~@AV-82         	I-AV-82         	O-AV-82         	1000.0000   	TCV 	100.0000    	0.0000      	;
 ~@AV-83         	I-AV-83         	O-AV-83         	1000.0000   	TCV 	100.0000    	0.0000      	;
 ~@AV-84         	I-AV-84         	O-AV-84         	1000.0000   	TCV 	100.0000    	0.0000      	;
 ~@AV-85         	I-AV-85         	O-AV-85         	1000.0000   	TCV 	100.0000    	0.0000      	;
 ~@AV-86         	I-AV-86         	O-AV-86         	1000.0000   	TCV 	100.0000    	0.0000      	;
 ~@AV-87         	I-AV-87         	O-AV-87         	1000.0000   	TCV 	100.0000    	0.0000      	;
 ~@AV-88         	I-AV-88         	O-AV-88         	1000.0000   	TCV 	100.0000    	0.0000      	;
 ~@AV-89         	I-AV-89         	O-AV-89         	1000.0000   	TCV 	100.0000    	0.0000      	;
 ~@AV-9          	I-AV-9          	O-AV-9          	1000.0000   	TCV 	100.0000    	0.0000      	;
 ~@AV-90         	I-AV-90         	O-AV-90         	1000.0000   	TCV 	100.0000    	0.0000      	;
 ~@AV-91         	I-AV-91         	O-AV-91         	1000.0000   	TCV 	100.0000    	0.0000      	;
 ~@AV-92         	I-AV-92         	O-AV-92         	1000.0000   	TCV 	100.0000    	0.0000      	;
 ~@AV-93         	I-AV-93         	O-AV-93         	1000.0000   	TCV 	100.0000    	0.0000      	;
 ~@AV-94         	I-AV-94         	O-AV-94         	1000.0000   	TCV 	100.0000    	0.0000      	;
 ~@AV-95         	I-AV-95         	O-AV-95         	1000.0000   	TCV 	100.0000    	0.0000      	;
 ~@AV-96         	I-AV-96         	O-AV-96         	1000.0000   	TCV 	100.0000    	0.0000      	;
 ~@AV-97         	I-AV-97         	O-AV-97         	1000.0000   	TCV 	100.0000    	0.0000      	;
 ~@AV-98         	I-AV-98         	O-AV-98         	1000.0000   	TCV 	100.0000    	0.0000      	;
 ~@AV-99         	I-AV-99         	O-AV-99         	1000.0000   	TCV 	100.0000    	0.0000      	;

[TAGS]

[DEMANDS]
;Junction        	Demand      	Pattern         	Category

[STATUS]
;ID              	Status/Setting

[PATTERNS]
;ID              	Multipliers
;
 1               	1.0000      	0.2500      	0.2090      	0.2090      	0.2590      	0.3600      
 1               	0.5290      	0.9100      	1.2000      	1.2990      	1.3400      	1.3400      
 1               	1.3200      	1.2690      	1.2500      	1.2500      	1.2790      	1.3700      
 1               	1.5190      	1.7000      	1.7500      	1.6690      	0.8990      	0.4790      
 1               	0.3300      	0.2500      	0.2090      	0.2090      	0.2590      	0.3600      
 1               	0.5290      	0.9100      	1.2000      	1.2990      	1.3400      	1.3400      
 1               	1.3200      	1.2690      	1.2500      	1.2500      	1.2790      	1.3700      
 1               	1.5190      	1.7000      	1.7500      	1.6690      	0.8990      	0.4790      
 1               	0.3300      	0.2500      	0.2090      	0.2090      	0.2590      	0.3600      
 1               	0.5290      	0.9100      	1.2000      	1.2990      	1.3400      	1.3400      
 1               	1.3200      	1.2690      	1.2500      	1.2500      	1.2790      	1.3700      
 1               	1.5190      	1.7000      	1.7500      	1.6690      	0.8990      	0.4790      
 1               	0.3300      	0.2500      	0.2090      	0.2090      	0.2590      	0.3600      
 1               	0.5290      	0.9100      	1.2000      	1.2990      	1.3400      	1.3400      
 1               	1.3200      	1.2690      	1.2500      	1.2500      	1.2790      	1.3700      
 1               	1.5190      	1.7000      	1.7500      	1.6690      	0.8990      	0.4790      
 1               	0.3300      	0.2500      	0.2090      	0.2090      	0.2590      	0.3600      
 1               	0.5290      	0.9100      	1.2000      	1.2990      	1.3400      	1.3400      
 1               	1.3200      	1.2690      	1.2500      	1.2500      	1.2790      	1.3700      
 1               	1.5190      	1.7000      	1.7500      	1.6690      	0.8990      	0.4790      
 1               	0.3300      	0.2500      	0.2090      	0.2090      	0.2590      	0.3600      
 1               	0.5290      	0.9100      	1.2000      	1.2990      	1.3400      	1.3400      
 1               	1.3200      	1.2690      	1.2500      	1.2500      	1.2790      	1.3700      
 1               	1.5190      	1.7000      	1.7500      	1.6690      	0.8990      	0.4790      
 1               	0.3300      	0.2500      	0.2090      	0.2090      	0.2590      	0.3600      
 1               	0.5290      	0.9100      	1.2000      	1.2990      	1.3400      	1.3400      
 1               	1.3200      	1.2690      	1.2500      	1.2500      	1.2790      	1.3700      
 1               	1.5190      	1.7000      	1.7500      	1.6690      	0.8990      	0.4790      
 1               	0.3300      	0.2500      	0.2090      	0.2090      	0.2590      	0.3600      
 1               	0.5290      	0.9100      	1.2000      	1.2990      	1.3400      	1.3400      
 1               	1.3200      	1.2690      	1.2500      	1.2500      	1.2790      	1.3700      
 1               	1.5190      	1.7000      	1.7500      	1.6690      	0.8990      	0.4790      
;
 11              	1.0000      
;
 ENRG1           	1.0000      	1.0000      	1.0000      	1.0000      	1.0000      	1.0000      
 ENRG1           	1.0000      	1.0000      	1.0000      	1.0000      	1.0000      	1.0000      
 ENRG1           	1.0000      	1.0000      	1.0000      	1.0000      	1.0000      	1.0000      
 ENRG1           	1.0000      	1.0000      	1.0000      	1.0000      	1.0000      	1.0000      
 ENRG1           	1.0000      	1.0000      	1.0000      	1.0000      	1.0000      	1.0000      
 ENRG1           	1.0000      	1.0000      	1.0000      	1.0000      	1.0000      	1.0000      
 ENRG1           	1.0000      	1.0000      	1.0000      	1.0000      	1.0000      	1.0000      
 ENRG1           	1.0000      	1.0000      	1.0000      	1.0000      	1.0000      	1.0000      
 ENRG1           	1.0000      	1.0000      	1.0000      	1.0000      	1.0000      	1.0000      
 ENRG1           	1.0000      	1.0000      	1.0000      	1.0000      	1.0000      	1.0000      
 ENRG1           	1.0000      	1.0000      	1.0000      	1.0000      	1.0000      	1.0000      
 ENRG1           	1.0000      	1.0000      	1.0000      	1.0000      	1.0000      	1.0000      
 ENRG1           	1.0000      	1.0000      	1.0000      	1.0000      	1.0000      	1.0000      
 ENRG1           	1.0000      	1.0000      	1.0000      	1.0000      	1.0000      	1.0000      
 ENRG1           	1.0000      	1.0000      	1.0000      	1.0000      	1.0000      	1.0000      
 ENRG1           	1.0000      	1.0000      	1.0000      	1.0000      	1.0000      	1.0000      
 ENRG1           	1.0000      	1.0000      	1.0000      	1.0000      	1.0000      	1.0000      
 ENRG1           	1.0000      	1.0000      	1.0000      	1.0000      	1.0000      	1.0000      
 ENRG1           	1.0000      	1.0000      	1.0000      	1.0000      	1.0000      	1.0000      
 ENRG1           	1.0000      	1.0000      	1.0000      	1.0000      	1.0000      	1.0000      
 ENRG1           	1.0000      	1.0000      	1.0000      	1.0000      	1.0000      	1.0000      
 ENRG1           	1.0000      	1.0000      	1.0000      	1.0000      	1.0000      	1.0000      
 ENRG1           	1.0000      	1.0000      	1.0000      	1.0000      	1.0000      	1.0000      
 ENRG1           	1.0000      	1.0000      	1.0000      	1.0000      	1.0000      	1.0000      
 ENRG1           	1.0000      	1.0000      	1.0000      	1.0000      	1.0000      	1.0000      
 ENRG1           	1.0000      	1.0000      	1.0000      	1.0000      	1.0000      	1.0000      
 ENRG1           	1.0000      	1.0000      	1.0000      	1.0000      	1.0000      	1.0000      
 ENRG1           	1.0000      	1.0000      	1.0000      	1.0000      	1.0000      	1.0000      
 ENRG1           	1.0000      	1.0000      	1.0000      	1.0000      	1.0000      	1.0000      
 ENRG1           	1.0000      	1.0000      	1.0000      	1.0000      	1.0000      	1.0000      
 ENRG1           	1.0000      	1.0000      	1.0000      	1.0000      	1.0000      	1.0000      
 ENRG1           	1.0000      	1.0000      	1.0000      	1.0000      	1.0000      	1.0000      

[CURVES]
;ID              	X-Value     	Y-Value

[CONTROLS]










[RULES]









[ENERGY]
 Global Efficiency  	75.0000
 Global Price       	0
 Demand Charge      	0.0000

[EMITTERS]
;Junction        	Coefficient

[QUALITY]
;Node            	InitQual
 O-1410_Pump     	120.000000
 O-AV-1          	20.959974
 I-AV-10         	34.717545
 I-AV-100        	65.519653
 I-AV-102        	14.778202
 I-AV-103        	71.435539
 I-AV-104        	91.141182
 I-AV-105        	71.999985
 I-AV-106        	72.731712
 I-AV-107        	41.943928
 I-AV-108        	45.200645
 I-AV-109        	41.913204
 I-AV-11         	62.197605
 I-AV-110        	72.228966
 I-AV-111        	72.804100
 I-AV-112        	28.553734
 I-AV-113        	123.199661
 I-AV-114        	71.857735
 I-AV-115        	119.342697
 I-AV-116        	73.400215
 I-AV-117        	73.482422
 I-AV-118        	72.939705
 I-AV-119        	69.303452
 I-AV-12         	63.805725
 I-AV-120        	63.561398
 I-AV-121        	60.085266
 I-AV-122        	66.511726
 I-AV-123        	42.432045
 I-AV-124        	128.864410
 I-AV-125        	63.260418
 I-AV-126        	62.772171
 I-AV-127        	17.610239
 I-AV-128        	41.128178
 I-AV-129        	57.740170
 I-AV-13         	83.471008
 I-AV-130        	44.491402
 I-AV-131        	63.536030
 I-AV-132        	120.000000
 I-AV-133        	120.000000
 I-AV-134        	157.561401
 I-AV-135        	128.744675
 I-AV-136        	60.137623
 I-AV-137        	60.528473
 I-AV-138        	57.026512
 I-AV-139        	21.748823
 I-AV-14         	63.486168
 I-AV-140        	19.207306
 I-AV-141        	52.860760
 I-AV-142        	54.690605
 I-AV-143        	65.953743
 I-AV-144        	52.388016
 I-AV-145        	86.134483
 I-AV-147        	88.943954
 I-AV-148        	48.261005
 I-AV-149        	120.000000
 I-AV-15         	64.848862
 I-AV-150        	51.358040
 I-AV-151        	91.895638
 I-AV-152        	18.598070
 I-AV-153        	91.324341
 I-AV-154        	48.614254
 I-AV-155        	47.669693
 I-AV-156        	47.538639
 I-AV-157        	27.186962
 I-AV-158        	54.062401
 I-AV-159        	55.553535
 I-AV-16         	10.848367
 I-AV-160        	55.110909
 I-AV-161        	60.564838
 I-AV-162        	120.000000
 I-AV-163        	54.837975
 I-AV-164        	19.448151
 I-AV-165        	61.942768
 I-AV-166        	62.430264
 I-AV-167        	64.736633
 I-AV-168        	129.814072
 I-AV-169        	64.363571
 I-AV-17         	23.711826
 I-AV-170        	64.736938
 I-AV-171        	66.618698
 I-AV-172        	66.670937
 I-AV-173        	68.423363
 I-AV-174        	68.606483
 I-AV-175        	120.000000
 I-AV-176        	18.487209
 I-AV-177        	68.763176
 I-AV-178        	69.299690
 I-AV-179        	118.791252
 I-AV-18         	120.000000
 I-AV-180        	69.587395
 I-AV-181        	70.096947
 I-AV-182        	72.073250
 I-AV-183        	76.034019
 I-AV-184        	74.397217
 I-AV-185        	75.658852
 I-AV-186        	74.874237
 I-AV-187        	76.526672
 I-AV-188        	17.927784
 I-AV-189        	36.104271
 I-AV-19         	120.000000
 I-AV-190        	61.646019
 I-AV-191        	120.000000
 I-AV-192        	114.379234
 I-AV-193        	80.242531
 I-AV-194        	84.601173
 I-AV-195        	84.411278
 I-AV-196        	84.832245
 I-AV-197        	86.932434
 I-AV-198        	87.124901
 I-AV-199        	87.128952
 I-AV-2          	83.961983
 I-AV-20         	120.000000
 I-AV-201        	62.593761
 I-AV-202        	93.349747
 I-AV-203        	94.439087
 I-AV-204        	97.559990
 I-AV-205        	95.328323
 I-AV-206        	85.624153
 I-AV-207        	85.823250
 I-AV-208        	89.666077
 I-AV-209        	84.715355
 I-AV-21         	120.000000
 I-AV-210        	81.450569
 I-AV-211        	0.166667
 I-AV-212        	62.242172
 I-AV-213        	106.284317
 I-AV-214        	84.827332
 I-AV-215        	84.583351
 I-AV-216        	84.742340
 I-AV-217        	85.130798
 I-AV-218        	85.362579
 I-AV-219        	85.362579
 I-AV-220        	84.505661
 I-AV-221        	89.810822
 I-AV-222        	0.583333
 I-AV-224        	120.000000
 I-AV-225        	101.748497
 I-AV-226        	107.502625
 I-AV-227        	94.427399
 I-AV-228        	150.041672
 I-AV-229        	96.335258
 I-AV-23         	26.244793
 I-AV-230        	95.575211
 I-AV-231        	93.097076
 I-AV-232        	120.000000
 I-AV-233        	120.000000
 I-AV-234        	98.768517
 I-AV-235        	47.329960
 I-AV-236        	103.163750
 I-AV-237        	104.170349
 I-AV-238        	102.918434
 I-AV-239        	63.522614
 I-AV-24         	119.572876
 I-AV-240        	104.502281
 I-AV-241        	106.125282
 I-AV-242        	105.786011
 I-AV-243        	105.675133
 I-AV-244        	172.753754
 I-AV-245        	196.118240
 I-AV-246        	48.003513
 I-AV-247        	90.899208
 I-AV-248        	90.687759
 I-AV-249        	102.338554
 I-AV-25         	34.696236
 I-AV-250        	113.534500
 I-AV-251        	111.504478
 I-AV-252        	56.680790
 I-AV-253        	111.598068
 I-AV-254        	116.487984
 I-AV-255        	120.320160
 I-AV-256        	117.761681
 I-AV-257        	49.309536
 I-AV-258        	118.384605
 I-AV-259        	120.000000
 I-AV-26         	26.540785
 I-AV-260        	99.489067
 I-AV-261        	120.000000
 I-AV-262        	25.333071
 I-AV-263        	113.818428
 I-AV-264        	92.235085
 I-AV-265        	111.351707
 I-AV-266        	120.000000
 I-AV-267        	114.846992
 I-AV-268        	21.065611
 I-AV-269        	115.932838
 I-AV-27         	27.765469
 I-AV-270        	113.438362
 I-AV-271        	123.362587
 I-AV-272        	135.238083
 I-AV-273        	146.343201
 I-AV-274        	33.475288
 I-AV-275        	73.309120
 I-AV-276        	32.291496
 I-AV-277        	117.633827
 I-AV-278        	117.639130
 I-AV-279        	15.976387
 I-AV-28         	28.926125
 I-AV-280        	120.000000
 I-AV-281        	117.644150
 I-AV-282        	117.626083
 I-AV-283        	124.399811
 I-AV-284        	115.712082
 I-AV-286        	119.925697
 I-AV-287        	117.948059
 I-AV-288        	109.536179
 I-AV-289        	105.363861
 I-AV-29         	23.641104
 I-AV-290        	36.104454
 I-AV-291        	120.000000
 I-AV-292        	50.876888
 I-AV-293        	16.628294
 I-AV-294        	73.661263
 I-AV-295        	14.264226
 I-AV-296        	2.438300
 I-AV-297        	3.069339
 I-AV-298        	19.252562
 I-AV-3          	44.462753
 I-AV-300        	21.135481
 I-AV-301        	12.496863
 I-AV-302        	46.240318
 I-AV-303        	29.198557
 I-AV-304        	31.364304
 I-AV-305        	33.741440
 I-AV-306        	35.714333
 I-AV-307        	46.723866
 I-AV-308        	35.145283
 I-AV-309        	35.641308
 I-AV-310        	34.223667
 I-AV-312        	63.438553
 I-AV-313        	33.726288
 I-AV-314        	27.189859
 I-AV-315        	27.461481
 I-AV-316        	11.803769
 I-AV-317        	11.850633
 I-AV-318        	11.829223
 I-AV-319        	18.644522
 I-AV-320        	3.312153
 I-AV-321        	17.447702
 I-AV-322        	17.732447
 I-AV-323        	83.252762
 I-AV-325        	17.620495
 I-AV-326        	17.577665
 I-AV-327        	18.090229
 I-AV-328        	17.821819
 I-AV-329        	42.129467
 I-AV-330        	44.268185
 I-AV-331        	18.137484
 I-AV-332        	18.062813
 I-AV-333        	9.986794
 I-AV-335        	74.248230
 I-AV-336        	18.104477
 I-AV-337        	121.194649
 I-AV-338        	18.414772
 I-AV-339        	18.266161
 I-AV-34         	32.957592
 I-AV-340        	18.166973
 I-AV-341        	31.955011
 I-AV-342        	44.572208
 I-AV-343        	21.970823
 I-AV-344        	20.335487
 I-AV-345        	19.762999
 I-AV-346        	75.886879
 I-AV-347        	20.196218
 I-AV-348        	20.018356
 I-AV-35         	43.335186
 I-AV-350        	10.621154
 I-AV-351        	31.125244
 I-AV-353        	21.156279
 I-AV-354        	20.941042
 I-AV-355        	20.831503
 I-AV-356        	21.178064
 I-AV-357        	87.142708
 I-AV-358        	21.127644
 I-AV-359        	21.178064
 I-AV-36         	32.196716
 I-AV-360        	21.425722
 I-AV-361        	18.136856
 I-AV-364        	27.944141
 I-AV-365        	115.185463
 I-AV-366        	77.990791
 I-AV-367        	117.983337
 I-AV-368        	87.225990
 I-AV-369        	117.378593
 I-AV-37         	163.010727
 I-AV-370        	124.302460
 I-AV-371        	122.907776
 I-AV-372        	119.801231
 I-AV-373        	122.745712
 I-AV-374        	122.825371
 I-AV-375        	15.819510
 I-AV-376        	32.347015
 I-AV-377        	116.295738
 I-AV-378        	119.252846
 I-AV-379        	79.090897
 I-AV-38         	34.772758
 I-AV-380        	135.040070
 I-AV-381        	132.086823
 I-AV-382        	150.538528
 I-AV-383        	73.830063
 I-AV-384        	130.224731
 I-AV-385        	63.898170
 I-AV-388        	31.438766
 I-AV-389        	11.543896
 I-AV-39         	41.788830
 I-AV-390        	74.098808
 I-AV-393        	118.045067
 I-AV-394        	117.829765
 I-AV-395        	117.811249
 I-AV-396        	117.528702
 I-AV-398        	131.753357
 I-AV-399        	94.720261
 I-AV-40         	45.986641
 I-AV-400        	28.737680
 I-AV-401        	26.349922
 I-AV-402        	65.559288
 I-AV-403        	11.316687
 I-AV-404        	65.827904
 I-AV-405        	113.777611
 I-AV-407        	86.912758
 I-AV-408        	115.842743
 I-AV-409        	115.695625
 I-AV-41         	22.558681
 I-AV-410        	115.766098
 I-AV-411        	144.425720
 I-AV-412        	78.474930
 I-AV-413        	29.088097
 I-AV-414        	133.563431
 I-AV-416        	16.695562
 I-AV-418        	113.543243
 I-AV-42         	46.083347
 I-AV-420        	115.740501
 I-AV-421        	115.559120
 I-AV-422        	120.059975
 I-AV-423        	83.666969
 I-AV-424        	108.802177
 I-AV-425        	15.597135
 I-AV-427        	84.418388
 I-AV-428        	143.216766
 I-AV-429        	160.377289
 I-AV-430        	169.178040
 I-AV-431        	159.200928
 I-AV-432        	27.526453
 I-AV-433        	27.966816
 I-AV-434        	26.490705
 I-AV-435        	32.394276
 I-AV-436        	41.944317
 I-AV-437        	11.909101
 I-AV-438        	42.158485
 I-AV-439        	20.142448
 I-AV-44         	43.250328
 I-AV-441        	32.576565
 I-AV-442        	32.329815
 I-AV-443        	32.897575
 I-AV-444        	53.194218
 I-AV-445        	26.318056
 I-AV-446        	46.674000
 I-AV-447        	49.563847
 I-AV-448        	120.868805
 I-AV-449        	48.334820
 I-AV-450        	23.640818
 I-AV-451        	48.510441
 I-AV-454        	75.590378
 I-AV-456        	190.174194
 I-AV-457        	190.500244
 I-AV-458        	38.947910
 I-AV-459        	83.629326
 I-AV-461        	26.029139
 I-AV-462        	37.704494
 I-AV-463        	25.696678
 I-AV-464        	37.793701
 I-AV-465        	37.211494
 I-AV-466        	31.970943
 I-AV-467        	33.570076
 I-AV-468        	34.130817
 I-AV-469        	45.619011
 I-AV-47         	43.082973
 I-AV-470        	134.938416
 I-AV-472        	45.191933
 I-AV-473        	45.257019
 I-AV-474        	78.092316
 I-AV-475        	77.840622
 I-AV-476        	34.741364
 I-AV-477        	78.556381
 I-AV-478        	76.455070
 I-AV-479        	76.053856
 I-AV-48         	41.074539
 I-AV-480        	44.058083
 I-AV-49         	41.250378
 I-AV-5          	44.687885
 I-AV-50         	56.220795
 I-AV-51         	13.192231
 I-AV-52         	82.774521
 I-AV-53         	12.486756
 I-AV-54         	103.955704
 I-AV-55         	125.388496
 I-AV-56         	122.925293
 I-AV-58         	120.088242
 I-AV-59         	119.392342
 I-AV-6          	62.333794
 I-AV-60         	120.346458
 I-AV-61         	120.237961
 I-AV-62         	36.083630
 I-AV-63         	34.613319
 I-AV-64         	27.464626
 I-AV-65         	11.189783
 I-AV-66         	27.498209
 I-AV-67         	33.979298
 I-AV-68         	119.201599
 I-AV-69         	25.004694
 I-AV-7          	59.103493
 I-AV-70         	25.096916
 I-AV-71         	120.000000
 I-AV-72         	35.174480
 I-AV-73         	38.603428
 I-AV-74         	41.588242
 I-AV-75         	35.511890
 I-AV-76         	37.554993
 I-AV-77         	13.002824
 I-AV-78         	38.425941
 I-AV-79         	119.748749
 I-AV-8          	64.411583
 I-AV-80         	48.724106
 I-AV-81         	41.653755
 I-AV-82         	40.194454
 I-AV-83         	40.615974
 I-AV-84         	38.600986
 I-AV-85         	40.977493
 I-AV-86         	42.969517
 I-AV-87         	44.888790
 I-AV-88         	14.230050
 I-AV-89         	13.141822
 I-AV-9          	62.774979
 I-AV-90         	11.958264
 I-AV-91         	14.180178
 I-AV-92         	14.164577
 I-AV-93         	14.317426
 I-AV-94         	13.408174
 I-AV-95         	13.032867
 I-AV-96         	32.094772
 I-AV-97         	10.071348
 I-AV-98         	33.797070
 I-AV-99         	180.003799
 I-Dry_Creek     	75.089592
 I-Elk_Glenn     	33.021809
 I-Hollybush     	91.487541
 O-HWY_80a       	63.974941
 J-1             	24.897223
 J-10            	69.436218
 J-100           	72.777328
 J-1000          	18.310478
 J-1001          	11.491877
 J-1003          	16.342634
 J-1005          	42.028950
 J-1006          	70.731087
 J-1007          	67.032379
 J-1008          	68.867966
 J-1009          	63.528439
 J-101           	84.438484
 J-1010          	64.331902
 J-1011          	35.620491
 J-1012          	43.764782
 J-1013          	53.762772
 J-1014          	55.599377
 J-1017          	116.694237
 J-102           	83.250374
 J-1020          	41.919792
 J-1022          	94.208313
 J-1023          	84.709076
 J-1024          	82.684044
 J-1026          	78.005608
 J-1027          	120.000000
 J-1028          	120.000000
 J-1029          	120.000000
 J-103           	38.591724
 J-1032          	120.000000
 J-1033          	120.000000
 J-1035          	118.490364
 J-1037          	124.467308
 J-104           	121.246399
 J-1040          	14.292274
 J-1044          	13.172989
 J-1045          	107.921394
 J-1047          	83.774857
 J-1048          	83.782112
 J-1049          	120.000000
 J-105           	82.865021
 J-1051          	118.847313
 J-1053          	31.178661
 J-1054          	21.878679
 J-1055          	32.352551
 J-1056          	49.039307
 J-1057          	19.657347
 J-1058          	18.288643
 J-106           	98.351860
 J-1060          	63.750450
 J-1061          	63.385433
 J-1062          	63.075008
 J-1063          	62.884090
 J-1064          	62.997913
 J-1065          	64.185448
 J-1068          	61.236111
 J-107           	73.810173
 J-1070          	54.606194
 J-1073          	28.696993
 J-1074          	44.649963
 J-1075          	120.000000
 J-1076          	59.434433
 J-1079          	38.259472
 J-108           	68.419456
 J-1080          	29.952744
 J-1081          	30.179045
 J-1082          	30.297871
 J-1083          	28.939409
 J-1084          	42.846905
 J-1085          	29.625895
 J-1086          	28.132874
 J-1087          	28.379049
 J-1088          	90.468414
 J-109           	29.992283
 J-1090          	32.452366
 J-1091          	43.741192
 J-1092          	52.878460
 J-1093          	41.318840
 J-1095          	42.384224
 J-1097          	41.204792
 J-1098          	65.594086
 J-1099          	110.702812
 J-11            	32.454853
 J-110           	21.857510
 J-1101          	121.132805
 J-1102          	121.636337
 J-1105          	86.867828
 J-111           	64.002411
 J-1111          	37.542686
 J-1112          	37.044048
 J-1113          	31.017958
 J-1114          	46.929752
 J-1115          	31.302586
 J-1116          	93.590897
 J-1117          	31.458263
 J-1119          	29.179701
 J-112           	64.409576
 J-1122          	27.177183
 J-1125          	21.044975
 J-1128          	132.588943
 J-1129          	86.450302
 J-113           	66.491608
 J-1130          	63.699429
 J-1131          	63.461250
 J-1132          	36.691212
 J-1133          	36.687119
 J-1135          	44.962093
 J-1136          	31.789951
 J-1137          	32.166809
 J-1138          	30.779875
 J-1139          	31.369638
 J-114           	87.426659
 J-1140          	30.636106
 J-1141          	43.246349
 J-1142          	30.398048
 J-1143          	30.514540
 J-1144          	44.448872
 J-1145          	28.038275
 J-1149          	27.867914
 J-115           	33.286831
 J-1150          	102.494713
 J-1151          	56.222878
 J-1152          	56.707863
 J-1153          	56.897560
 J-1154          	60.941364
 J-1155          	120.000000
 J-1156          	63.867199
 J-1157          	6.281878
 J-1159          	130.841797
 J-116           	2.931120
 J-1160          	97.991272
 J-1161          	115.726997
 J-1164          	156.614487
 J-1166          	120.000000
 J-1168          	186.411316
 J-1169          	186.351028
 J-117           	1.884199
 J-1170          	172.393326
 J-1172          	117.650192
 J-1174          	115.793762
 J-1176          	113.901100
 J-1178          	120.000000
 J-1179          	120.000000
 J-118           	18.290283
 J-1180          	120.000000
 J-1181          	120.000000
 J-1184          	120.347954
 J-1185          	151.596893
 J-1187          	180.531174
 J-1188          	25.555397
 J-1189          	45.286152
 J-119           	6.619531
 J-1190          	25.029205
 J-1192          	24.940969
 J-1193          	30.828300
 J-1194          	28.018091
 J-1196          	120.000000
 J-1197          	120.000000
 J-1198          	28.793591
 J-12            	105.498047
 J-120           	23.144651
 J-1200          	21.133852
 J-1201          	21.335405
 J-1202          	30.912821
 J-1204          	21.630013
 J-1206          	20.397051
 J-1207          	66.065247
 J-1208          	21.245909
 J-1209          	30.260334
 J-121           	119.301949
 J-1210          	21.046516
 J-1211          	29.812376
 J-1212          	30.407715
 J-1213          	125.046875
 J-1214          	20.739773
 J-1215          	58.242722
 J-1216          	48.203701
 J-1217          	24.805342
 J-1218          	18.167871
 J-1219          	43.785034
 J-122           	108.625313
 J-1221          	43.468075
 J-1222          	21.883408
 J-1223          	20.598377
 J-1225          	42.756504
 J-1227          	17.631567
 J-1229          	24.927324
 J-123           	27.516996
 J-1230          	120.000000
 J-1237          	0.083333
 J-1238          	0.500000
 J-1239          	0.416667
 J-124           	9.253423
 J-1240          	0.333333
 J-1241          	0.250000
 J-1243          	34.721127
 J-1244          	34.788315
 J-1245          	56.090088
 J-1247          	34.723213
 J-1249          	108.535034
 J-125           	10.986361
 J-1250          	59.573784
 J-1251          	34.701286
 J-1252          	23.982199
 J-1253          	35.743824
 J-1254          	25.770548
 J-1256          	23.505806
 J-1257          	11.410170
 J-126           	11.679122
 J-1260          	13.041165
 J-1261          	14.721958
 J-1267          	158.315063
 J-1269          	41.201008
 J-127           	12.479475
 J-1271          	43.287830
 J-1272          	96.189537
 J-1275          	70.480148
 J-1276          	91.760468
 J-1277          	89.948952
 J-1278          	87.051880
 J-1279          	93.339195
 J-128           	1.346052
 J-1280          	120.000000
 J-1282          	88.824066
 J-1283          	89.012718
 J-1285          	112.992165
 J-1287          	90.744293
 J-1288          	90.035805
 J-1289          	90.463554
 J-129           	114.895706
 J-1291          	12.349401
 J-1293          	12.392479
 J-1294          	12.437130
 J-1295          	12.349401
 J-1297          	58.181225
 J-13            	171.568329
 J-130           	19.844061
 J-1301          	93.079994
 J-1303          	120.000000
 J-1306          	111.075325
 J-1309          	131.363464
 J-131           	20.156393
 J-1311          	45.972458
 J-1312          	120.000000
 J-1313          	191.231979
 J-1314          	120.000000
 J-1315          	120.000000
 J-1316          	120.000000
 J-1318          	120.000000
 J-1319          	117.876671
 J-132           	26.207792
 J-1320          	120.000000
 J-1321          	120.000000
 J-1322          	190.117477
 J-1323          	120.000000
 J-1324          	46.205074
 J-1325          	120.000000
 J-1326          	120.000000
 J-1327          	120.000000
 J-1328          	163.055923
 J-133           	71.454468
 J-1330          	120.000000
 J-1331          	120.000000
 J-1332          	120.000000
 J-1333          	39.156734
 J-1334          	120.000000
 J-1335          	120.000000
 J-1336          	120.000000
 J-1337          	105.037407
 J-1338          	120.000000
 J-1339          	82.533600
 J-134           	71.911011
 J-1340          	44.845119
 J-1341          	11.446756
 J-1344          	120.000000
 J-1345          	120.000000
 J-1346          	120.000000
 J-1347          	120.000000
 J-1348          	120.000000
 J-1349          	120.000000
 J-135           	72.276199
 J-1350          	120.000000
 J-1351          	124.510078
 J-1352          	150.775208
 J-1353          	169.711685
 J-1354          	124.252838
 J-1355          	129.323181
 J-1356          	166.456009
 J-1357          	63.112614
 J-1358          	90.327065
 J-136           	69.315964
 J-1360          	142.742813
 J-1362          	165.379150
 J-1363          	52.983040
 J-1364          	120.000000
 J-1365          	120.000000
 J-1366          	120.000000
 J-1367          	120.256973
 J-1368          	188.904648
 J-1369          	95.289513
 J-137           	127.590248
 J-1371          	69.404381
 J-1372          	176.417664
 J-1373          	199.835281
 J-1375          	159.200928
 J-1376          	117.464470
 J-1377          	110.951851
 J-1378          	112.314941
 J-1379          	120.000000
 J-138           	46.806480
 J-1380          	97.149506
 J-1381          	120.000000
 J-1382          	120.000000
 J-1383          	113.581459
 J-1384          	115.134727
 J-1385          	130.701813
 J-1386          	145.824417
 J-1387          	150.949356
 J-1388          	68.103218
 J-1389          	94.153992
 J-139           	48.537373
 J-1390          	117.658546
 J-1394          	120.000000
 J-1395          	120.000000
 J-1396          	142.994934
 J-1397          	120.000000
 J-1398          	193.921005
 J-1399          	120.000000
 J-14            	63.524361
 J-140           	123.718842
 J-1400          	127.032776
 J-1401          	188.167191
 J-1402          	120.000000
 J-1403          	120.000000
 J-1404          	188.778839
 J-1405          	120.000000
 J-1406          	80.452431
 J-1407          	55.767262
 J-1408          	117.414429
 J-1409          	142.937698
 J-141           	45.541233
 J-1410          	120.000000
 J-1411          	103.214455
 J-1412          	157.971619
 J-1413          	198.566635
 J-1414          	136.742599
 J-1415          	72.569611
 J-1416          	120.000000
 J-1417          	107.113190
 J-1418          	76.579514
 J-1419          	120.000000
 J-142           	41.163548
 J-1420          	120.000000
 J-1421          	120.000000
 J-1422          	120.000000
 J-1423          	61.630692
 J-1424          	66.844330
 J-1425          	21.703781
 J-1426          	120.000000
 J-1427          	126.727173
 J-1428          	57.613575
 J-1429          	120.000000
 J-143           	40.640289
 J-1430          	120.000000
 J-1431          	180.778046
 J-1432          	159.166443
 J-1433          	120.000000
 J-1434          	42.079479
 J-1435          	167.553513
 J-1436          	120.000000
 J-1437          	120.000000
 J-1438          	195.289658
 J-144           	125.664474
 J-1440          	112.572823
 J-1441          	120.000000
 J-1442          	120.000000
 J-1443          	120.000000
 J-1444          	120.000000
 J-1445          	120.000000
 J-1446          	131.045975
 J-1447          	120.000000
 J-1448          	120.000000
 J-1449          	120.000000
 J-145           	117.456818
 J-1450          	28.942514
 J-1451          	17.789892
 J-1452          	51.199932
 J-1453          	128.740356
 J-1454          	120.000000
 J-1455          	151.752228
 J-1456          	140.851044
 J-1457          	120.000000
 J-1458          	120.000000
 J-1459          	171.324387
 J-146           	57.644264
 J-1460          	121.924599
 J-1461          	138.738571
 J-1462          	161.920303
 J-1463          	120.000000
 J-1465          	152.908279
 J-1466          	120.000000
 J-1467          	120.000000
 J-1468          	120.000000
 J-1469          	61.181988
 J-147           	120.000000
 J-1470          	87.059731
 J-1471          	120.000000
 J-1472          	22.403652
 J-1473          	120.000000
 J-1474          	120.000000
 J-1475          	89.800987
 J-1476          	120.000000
 J-1477          	118.886887
 J-148           	52.057384
 J-1480          	89.636734
 J-1481          	146.167938
 J-1482          	120.000000
 J-1483          	57.694939
 J-1484          	16.039457
 J-1485          	23.529301
 J-1486          	16.756706
 J-1487          	66.695633
 J-149           	49.963070
 J-1490          	106.467751
 J-1491          	126.750069
 J-1492          	151.759720
 J-1493          	105.481293
 J-1494          	76.611633
 J-1495          	120.000000
 J-1496          	81.418205
 J-1497          	108.580719
 J-1498          	120.000000
 J-1499          	72.935440
 J-15            	195.552597
 J-150           	108.499039
 J-1501          	142.202301
 J-1502          	119.292259
 J-1503          	135.740829
 J-1504          	120.000000
 J-1505          	152.070129
 J-1506          	120.000000
 J-1507          	120.000000
 J-1508          	85.069527
 J-1509          	82.296150
 J-151           	11.536032
 J-1510          	14.333505
 J-1511          	24.898890
 J-1512          	137.311218
 J-1513          	50.269611
 J-1515          	120.000000
 J-1516          	106.454781
 J-1517          	120.000000
 J-1518          	43.630692
 J-1519          	165.655563
 J-152           	27.837551
 J-1520          	87.478157
 J-1521          	105.604073
 J-1522          	124.680305
 J-1523          	142.524857
 J-1524          	110.758514
 J-1525          	161.477295
 J-1526          	79.269043
 J-1527          	60.952579
 J-1528          	120.000000
 J-1529          	120.000000
 J-153           	26.680908
 J-1530          	107.166481
 J-1531          	120.000000
 J-1532          	129.279068
 J-1533          	82.408768
 J-1535          	154.947388
 J-1536          	120.000000
 J-1537          	67.931160
 J-1538          	19.040783
 J-1539          	120.000000
 J-154           	129.612167
 J-1540          	120.000000
 J-1541          	138.545425
 J-1542          	19.116604
 J-1543          	120.000000
 J-1544          	182.142853
 J-1545          	120.000000
 J-1546          	63.908443
 J-1547          	104.894875
 J-1548          	63.679932
 J-1549          	120.000000
 J-155           	17.963604
 J-1550          	159.683502
 J-1551          	120.000000
 J-1552          	120.000000
 J-1553          	126.995178
 J-1554          	140.276642
 J-1555          	41.828701
 J-1556          	120.000000
 J-1557          	41.407803
 J-1559          	120.000000
 J-156           	35.961849
 J-1560          	106.225250
 J-1561          	120.000000
 J-1562          	62.914417
 J-1563          	130.075684
 J-1564          	120.000000
 J-1565          	120.000000
 J-1566          	120.000000
 J-1567          	55.228786
 J-1568          	81.055138
 J-1569          	120.000000
 J-157           	119.418243
 J-1570          	120.000000
 J-1571          	72.503242
 J-1572          	120.000000
 J-1573          	92.331329
 J-1574          	53.139874
 J-1575          	80.393600
 J-1576          	120.000000
 J-1577          	120.000000
 J-1578          	112.348503
 J-1579          	72.427765
 J-158           	44.671196
 J-1580          	82.800919
 J-1581          	120.000000
 J-1582          	198.421585
 J-1584          	159.034348
 J-1586          	174.944611
 J-1587          	79.017807
 J-1588          	84.923141
 J-159           	120.000000
 J-1590          	120.000000
 J-1591          	120.000000
 J-1592          	99.484879
 J-1593          	120.000000
 J-1594          	120.000000
 J-1595          	19.312920
 J-1597          	120.000000
 J-1598          	159.583618
 J-1599          	120.000000
 J-16            	127.610565
 J-160           	120.000000
 J-1600          	120.000000
 J-1601          	78.110588
 J-1602          	120.000000
 J-1604          	115.266937
 J-1605          	148.369736
 J-1606          	114.249947
 J-1607          	122.454231
 J-1608          	147.048584
 J-1609          	120.000000
 J-161           	41.670349
 J-1610          	120.078255
 J-1611          	120.000000
 J-1612          	120.000000
 J-1613          	149.597855
 J-1614          	186.736465
 J-1615          	114.750183
 J-1616          	167.175797
 J-1617          	120.000000
 J-1618          	151.872879
 J-1619          	120.000000
 J-162           	48.095577
 J-1620          	145.969604
 J-1621          	120.000000
 J-1622          	120.000000
 J-1623          	120.000000
 J-1624          	72.885071
 J-1625          	70.902809
 J-1626          	93.518829
 J-1627          	120.000000
 J-1628          	172.352646
 J-1629          	140.986481
 J-163           	120.000000
 J-1630          	120.000000
 J-1631          	120.000000
 J-1632          	120.000000
 J-1633          	120.000000
 J-1634          	52.898411
 J-1635          	120.000000
 J-1636          	157.064087
 J-1637          	153.335144
 J-1638          	64.653603
 J-164           	49.457912
 J-1640          	120.000000
 J-1641          	120.000000
 J-1642          	91.432869
 J-1643          	164.284073
 J-1644          	120.000000
 J-1645          	120.000000
 J-1646          	148.466064
 J-1647          	138.066254
 J-1648          	18.081408
 J-1649          	72.350769
 J-165           	29.040812
 J-1650          	120.000000
 J-1652          	20.659300
 J-1653          	19.545576
 J-1654          	120.000000
 J-1655          	67.480865
 J-1656          	45.026333
 J-1657          	119.936378
 J-1658          	30.303396
 J-166           	11.118339
 J-1661          	120.000000
 J-1662          	120.000000
 J-1663          	122.922035
 J-1664          	26.878345
 J-1665          	20.655550
 J-1667          	120.000000
 J-1668          	45.705101
 J-1669          	46.840538
 J-167           	0.397872
 J-1671          	120.000000
 J-1672          	13.612055
 J-1673          	46.445957
 J-1674          	61.094044
 J-1675          	57.460056
 J-1676          	158.463516
 J-1677          	187.576569
 J-1678          	127.703644
 J-168           	57.866524
 J-1680          	120.000000
 J-1681          	120.000000
 J-1683          	171.794800
 J-1684          	195.513718
 J-1685          	144.368378
 J-1686          	120.000000
 J-1687          	120.000000
 J-1689          	83.304420
 J-169           	0.166667
 J-1690          	120.000000
 J-1692          	120.000000
 J-1693          	120.000000
 J-1694          	86.060333
 J-1695          	176.772842
 J-1696          	195.652832
 J-1698          	140.457809
 J-1699          	151.605316
 J-17            	56.527813
 J-170           	116.154488
 J-1700          	120.000000
 J-1701          	125.283775
 J-1702          	173.445068
 J-1703          	197.612640
 J-1704          	180.426437
 J-1705          	173.728577
 J-1706          	120.000000
 J-1707          	120.000000
 J-1708          	120.000000
 J-1709          	101.748497
 J-171           	20.042330
 J-1710          	191.882294
 J-1711          	120.000000
 J-1712          	169.003784
 J-1713          	119.408928
 J-1714          	120.000000
 J-1715          	120.000000
 J-1716          	90.945961
 J-1717          	120.000000
 J-1718          	120.000000
 J-1719          	146.335236
 J-172           	65.449646
 J-1720          	163.769730
 J-1721          	120.000000
 J-1722          	22.565069
 J-1723          	46.615349
 J-1724          	120.000000
 J-1725          	118.381729
 J-1726          	120.000000
 J-1727          	120.000000
 J-1728          	120.000000
 J-1729          	64.510567
 J-173           	60.159866
 J-1730          	128.699829
 J-1731          	120.000000
 J-1732          	73.250916
 J-1733          	36.914494
 J-1734          	26.176687
 J-1735          	41.267223
 J-1736          	93.120163
 J-1737          	120.000000
 J-1738          	120.000000
 J-174           	136.427444
 J-175           	78.160553
 J-176           	84.769943
 J-177           	64.999283
 J-178           	65.468674
 J-179           	63.491226
 J-18            	58.364628
 J-180           	65.127625
 J-181           	17.793768
 J-182           	17.635469
 J-183           	6.032114
 J-184           	91.871269
 J-185           	120.000000
 J-186           	115.099747
 J-187           	35.446407
 J-188           	33.608746
 J-189           	34.881535
 J-19            	59.099892
 J-190           	123.340431
 J-191           	120.000000
 J-192           	117.724770
 J-193           	117.982025
 J-194           	91.315941
 J-195           	110.815125
 J-196           	106.630043
 J-197           	68.410179
 J-198           	68.958725
 J-199           	20.548536
 J-2             	69.966980
 J-20            	113.463478
 J-200           	20.769812
 J-201           	70.661652
 J-202           	116.675827
 J-203           	47.439724
 J-204           	41.851280
 J-205           	56.991764
 J-206           	58.239086
 J-207           	115.966698
 J-208           	119.524437
 J-209           	42.179699
 J-21            	11.952720
 J-210           	41.864941
 J-211           	56.419712
 J-212           	196.694733
 J-213           	36.144093
 J-214           	34.920540
 J-215           	117.530235
 J-216           	54.400600
 J-217           	19.542097
 J-218           	19.680592
 J-219           	60.759827
 J-22            	21.191166
 J-220           	64.501144
 J-221           	60.170681
 J-222           	49.555954
 J-223           	55.647682
 J-224           	117.495422
 J-225           	55.846565
 J-226           	120.000000
 J-227           	32.387146
 J-228           	71.999847
 J-229           	71.922882
 J-23            	38.697662
 J-230           	120.244583
 J-231           	120.432823
 J-232           	119.578201
 J-233           	124.660362
 J-234           	19.764374
 J-235           	19.852133
 J-236           	66.515450
 J-237           	67.484940
 J-238           	121.406906
 J-239           	32.472481
 J-24            	97.410675
 J-240           	73.775665
 J-241           	120.000000
 J-242           	45.984135
 J-243           	48.677528
 J-244           	43.217651
 J-245           	121.638306
 J-246           	34.750053
 J-247           	70.361061
 J-248           	71.518875
 J-249           	44.675346
 J-25            	63.291138
 J-250           	42.446701
 J-251           	56.926788
 J-252           	21.674847
 J-253           	120.000000
 J-254           	24.612480
 J-255           	26.807550
 J-256           	64.911232
 J-257           	63.226994
 J-258           	64.965370
 J-259           	122.947800
 J-26            	63.501881
 J-260           	120.000000
 J-261           	120.000000
 J-262           	120.000000
 J-263           	62.390244
 J-264           	103.147362
 J-265           	120.000000
 J-266           	83.691338
 J-267           	87.636513
 J-268           	116.901512
 J-269           	46.187046
 J-27            	18.334223
 J-270           	81.625809
 J-272           	64.346786
 J-273           	44.739994
 J-275           	116.991859
 J-276           	118.546661
 J-277           	54.482800
 J-278           	87.794456
 J-279           	91.865280
 J-28            	115.991096
 J-280           	64.064125
 J-281           	61.260586
 J-282           	38.726669
 J-283           	39.736618
 J-284           	35.076180
 J-285           	35.390816
 J-286           	63.896553
 J-288           	119.482689
 J-289           	120.443626
 J-29            	120.000000
 J-290           	73.654510
 J-291           	73.440102
 J-293           	64.013771
 J-294           	32.450146
 J-297           	58.128128
 J-299           	104.347198
 J-3             	50.255939
 J-30            	71.000481
 J-300           	32.590721
 J-301           	32.592339
 J-302           	33.269989
 J-303           	32.424942
 J-304           	34.393185
 J-305           	45.117752
 J-306           	45.566021
 J-307           	56.272175
 J-309           	33.231110
 J-31            	70.731087
 J-310           	41.799576
 J-311           	42.106850
 J-312           	45.420856
 J-313           	56.366421
 J-314           	60.292686
 J-315           	56.183247
 J-316           	56.168758
 J-317           	42.101158
 J-318           	112.768845
 J-319           	113.188751
 J-32            	33.667656
 J-320           	61.880455
 J-321           	72.758049
 J-322           	92.027779
 J-323           	91.197105
 J-324           	85.220192
 J-325           	85.614647
 J-326           	38.639378
 J-327           	65.490517
 J-328           	63.735504
 J-329           	46.539825
 J-33            	41.156364
 J-330           	124.163689
 J-332           	44.626041
 J-333           	92.425240
 J-334           	92.747116
 J-335           	71.839546
 J-336           	73.803673
 J-337           	43.492970
 J-338           	43.822025
 J-339           	53.945782
 J-34            	34.813251
 J-340           	85.702873
 J-345           	53.442482
 J-346           	68.835426
 J-347           	25.793011
 J-348           	33.892700
 J-349           	68.680466
 J-35            	34.912598
 J-350           	54.024113
 J-351           	14.308292
 J-352           	45.864655
 J-353           	42.185028
 J-354           	50.015755
 J-355           	25.400986
 J-356           	49.248108
 J-357           	49.690369
 J-358           	44.403198
 J-36            	47.674576
 J-360           	45.229118
 J-361           	18.437227
 J-362           	118.900002
 J-363           	118.472977
 J-364           	119.317757
 J-365           	118.461746
 J-366           	123.318314
 J-367           	121.617134
 J-368           	86.006653
 J-369           	73.949524
 J-37            	64.336098
 J-370           	56.310280
 J-371           	56.256123
 J-372           	54.065659
 J-373           	53.902878
 J-374           	58.237865
 J-375           	62.326851
 J-376           	59.928394
 J-377           	70.777939
 J-378           	68.750107
 J-379           	59.384022
 J-38            	63.704483
 J-380           	54.679783
 J-381           	63.867199
 J-382           	47.744629
 J-383           	43.250481
 J-384           	45.930016
 J-385           	35.105999
 J-386           	33.736950
 J-387           	46.970226
 J-388           	21.648096
 J-389           	30.387253
 J-39            	42.430752
 J-390           	60.627487
 J-391           	57.845013
 J-392           	59.691582
 J-393           	68.293266
 J-394           	47.535522
 J-395           	43.957809
 J-396           	168.741150
 J-397           	14.501557
 J-398           	13.224137
 J-4             	48.539726
 J-40            	55.889355
 J-400           	13.349888
 J-401           	14.389104
 J-402           	16.823925
 J-403           	32.297871
 J-404           	123.537064
 J-405           	175.079575
 J-406           	66.605469
 J-407           	79.805283
 J-409           	26.476519
 J-41            	70.650024
 J-410           	43.451210
 J-411           	49.521152
 J-412           	85.716187
 J-413           	100.684921
 J-414           	32.576565
 J-415           	32.430649
 J-416           	52.749779
 J-417           	43.975025
 J-418           	88.963547
 J-419           	93.579346
 J-42            	42.320465
 J-420           	44.348412
 J-422           	116.641266
 J-423           	135.122849
 J-424           	61.872013
 J-425           	63.178825
 J-426           	25.160904
 J-428           	27.762411
 J-429           	46.229210
 J-43            	59.163666
 J-430           	26.465494
 J-431           	43.638191
 J-432           	26.486547
 J-433           	42.649700
 J-434           	46.189922
 J-435           	46.083378
 J-436           	34.643497
 J-437           	40.570309
 J-438           	46.070694
 J-439           	44.504990
 J-44            	67.656288
 J-442           	95.897118
 J-443           	94.752563
 J-444           	84.668259
 J-445           	85.790932
 J-446           	95.486145
 J-447           	97.783363
 J-448           	86.758682
 J-449           	107.276131
 J-45            	127.390068
 J-450           	93.259056
 J-451           	113.168945
 J-452           	94.592369
 J-453           	113.326012
 J-454           	86.398659
 J-456           	34.690819
 J-457           	156.926193
 J-458           	35.445805
 J-459           	36.879723
 J-46            	66.345566
 J-461           	120.039642
 J-462           	119.621452
 J-463           	11.629499
 J-464           	11.895876
 J-465           	120.000000
 J-466           	120.000000
 J-469           	120.000000
 J-47            	30.420467
 J-470           	120.000000
 J-472           	31.594189
 J-473           	27.319939
 J-474           	24.978003
 J-476           	84.737061
 J-478           	84.553673
 J-479           	90.475502
 J-48            	92.488716
 J-480           	91.861130
 J-481           	85.790825
 J-483           	120.000000
 J-486           	61.017109
 J-487           	50.244602
 J-488           	42.654408
 J-489           	120.000000
 J-49            	47.998730
 J-490           	101.515244
 J-491           	29.637878
 J-492           	102.541687
 J-493           	73.843681
 J-494           	79.149017
 J-496           	77.286789
 J-497           	140.960281
 J-498           	62.092632
 J-5             	26.246700
 J-50            	47.691044
 J-508           	72.703651
 J-509           	120.000000
 J-51            	55.882633
 J-510           	2.709625
 J-512           	9.921480
 J-513           	8.834930
 J-514           	120.000000
 J-515           	120.000000
 J-516           	120.000000
 J-517           	120.000000
 J-518           	120.000000
 J-519           	27.560383
 J-52            	120.000000
 J-520           	32.142857
 J-521           	187.518188
 J-522           	24.941425
 J-524           	23.254801
 J-525           	21.872829
 J-526           	37.361740
 J-527           	37.742699
 J-528           	48.939686
 J-529           	49.590179
 J-53            	87.236191
 J-530           	84.571472
 J-531           	84.599762
 J-532           	116.993324
 J-534           	162.530151
 J-535           	84.912361
 J-536           	91.502007
 J-54            	26.996403
 J-540           	35.615780
 J-541           	52.358967
 J-545           	48.625698
 J-546           	48.603065
 J-547           	23.571255
 J-549           	27.138550
 J-55            	20.883619
 J-550           	31.527906
 J-551           	120.000000
 J-553           	35.536369
 J-554           	37.000469
 J-555           	38.791737
 J-556           	27.432301
 J-557           	18.068254
 J-559           	18.411678
 J-56            	21.796722
 J-560           	26.595505
 J-562           	64.503159
 J-563           	64.165413
 J-564           	64.468407
 J-565           	64.124084
 J-567           	114.287209
 J-569           	112.719490
 J-57            	18.636179
 J-570           	114.381073
 J-571           	115.713898
 J-572           	116.219048
 J-574           	123.918236
 J-575           	123.900002
 J-576           	112.071396
 J-577           	108.922882
 J-578           	120.000000
 J-58            	21.456924
 J-582           	86.153938
 J-585           	119.456985
 J-586           	128.608505
 J-587           	130.383865
 J-588           	118.786308
 J-589           	117.891113
 J-59            	25.482494
 J-590           	120.519806
 J-591           	115.481911
 J-592           	81.696457
 J-594           	41.571152
 J-596           	120.773087
 J-598           	117.753654
 J-6             	82.736320
 J-60            	32.897575
 J-600           	53.311069
 J-601           	27.415291
 J-602           	26.591837
 J-603           	26.396769
 J-606           	63.423439
 J-609           	63.612568
 J-61            	68.732765
 J-610           	48.451248
 J-611           	53.260826
 J-612           	73.303207
 J-613           	75.550148
 J-615           	74.343781
 J-617           	29.363157
 J-618           	33.700451
 J-619           	29.903999
 J-62            	68.984497
 J-620           	41.491722
 J-621           	108.085655
 J-622           	111.641579
 J-623           	64.946220
 J-625           	18.059177
 J-626           	18.077494
 J-628           	21.305965
 J-629           	20.106054
 J-63            	17.524035
 J-630           	19.735819
 J-631           	19.181452
 J-633           	17.928209
 J-635           	120.000000
 J-637           	83.919777
 J-638           	87.716812
 J-64            	17.966270
 J-642           	38.574486
 J-643           	120.000000
 J-647           	120.000000
 J-65            	76.283745
 J-650           	38.639378
 J-651           	36.302464
 J-653           	61.312866
 J-655           	118.839020
 J-656           	118.817505
 J-657           	118.976578
 J-658           	23.641104
 J-659           	23.488623
 J-66            	77.484337
 J-660           	22.518034
 J-661           	22.479195
 J-664           	27.646759
 J-665           	43.002022
 J-666           	46.396534
 J-667           	46.674767
 J-669           	33.046036
 J-67            	91.704391
 J-672           	68.979736
 J-673           	30.304705
 J-675           	44.153324
 J-677           	46.243652
 J-678           	47.953571
 J-679           	50.774952
 J-68            	84.574539
 J-680           	52.178318
 J-681           	55.329342
 J-682           	85.761795
 J-684           	92.705704
 J-685           	41.523766
 J-687           	42.032883
 J-688           	42.094311
 J-69            	19.007254
 J-690           	40.383141
 J-691           	40.774704
 J-692           	43.297348
 J-693           	43.597980
 J-694           	44.110550
 J-695           	44.365028
 J-696           	46.203773
 J-698           	45.563370
 J-7             	43.468094
 J-70            	26.314901
 J-702           	56.788246
 J-703           	114.828445
 J-704           	115.113686
 J-705           	116.002808
 J-708           	123.184593
 J-71            	102.293709
 J-710           	31.708549
 J-711           	31.601889
 J-712           	31.795958
 J-713           	120.000000
 J-715           	120.000000
 J-716           	120.000000
 J-717           	120.000000
 J-719           	195.601944
 J-72            	83.231049
 J-722           	99.140747
 J-723           	120.000000
 J-725           	120.000000
 J-728           	76.700577
 J-729           	90.329559
 J-73            	25.798107
 J-730           	74.771004
 J-732           	36.022446
 J-733           	21.001387
 J-734           	126.499527
 J-735           	32.634884
 J-737           	32.857983
 J-74            	84.593025
 J-740           	32.415237
 J-742           	26.418064
 J-743           	105.610504
 J-744           	120.000000
 J-745           	120.000000
 J-746           	33.351891
 J-747           	34.639992
 J-749           	45.168346
 J-75            	21.162277
 J-751           	101.761353
 J-752           	101.505981
 J-755           	101.300049
 J-756           	96.446609
 J-757           	185.615356
 J-758           	42.506760
 J-759           	62.666500
 J-76            	41.688122
 J-760           	80.034790
 J-761           	139.156998
 J-763           	71.997200
 J-765           	119.253410
 J-766           	129.370361
 J-77            	84.657082
 J-770           	119.516159
 J-771           	129.287064
 J-772           	119.301376
 J-775           	120.966492
 J-777           	27.411253
 J-778           	11.442355
 J-779           	54.719883
 J-78            	85.067345
 J-781           	20.109215
 J-783           	113.261620
 J-784           	113.334549
 J-785           	113.404465
 J-786           	113.094833
 J-787           	120.000000
 J-79            	91.220604
 J-791           	59.455093
 J-792           	59.860542
 J-796           	64.559631
 J-797           	67.265816
 J-799           	68.263786
 J-8             	42.673115
 J-80            	91.823189
 J-801           	68.153152
 J-802           	62.298386
 J-804           	92.358437
 J-805           	69.223816
 J-806           	69.254074
 J-807           	120.000000
 J-808           	120.000000
 J-809           	120.000000
 J-81            	19.933153
 J-810           	120.000000
 J-811           	120.000000
 J-812           	120.000000
 J-813           	110.823059
 J-815           	105.805229
 J-816           	105.736572
 J-817           	106.316559
 J-818           	106.090157
 J-819           	116.008324
 J-82            	31.193798
 J-820           	123.155380
 J-821           	105.979591
 J-822           	108.155312
 J-823           	105.543404
 J-824           	123.998726
 J-825           	105.567474
 J-826           	105.425560
 J-827           	105.495804
 J-828           	105.506760
 J-83            	38.196796
 J-830           	103.490799
 J-833           	116.032471
 J-834           	119.742958
 J-836           	122.719452
 J-837           	119.014053
 J-839           	118.007713
 J-84            	41.735104
 J-840           	120.000000
 J-841           	168.112000
 J-842           	111.384445
 J-844           	96.062668
 J-845           	95.894073
 J-846           	92.578003
 J-847           	94.206841
 J-85            	42.790257
 J-850           	120.000000
 J-851           	95.331558
 J-852           	86.763870
 J-855           	125.160980
 J-857           	186.767700
 J-858           	105.570290
 J-859           	125.267319
 J-86            	84.552124
 J-861           	95.383308
 J-862           	120.000000
 J-863           	75.425247
 J-867           	71.210800
 J-868           	57.633488
 J-869           	53.867859
 J-87            	41.317520
 J-870           	82.089195
 J-871           	61.964008
 J-873           	118.156662
 J-874           	117.633064
 J-878           	123.087814
 J-88            	42.046646
 J-880           	131.740875
 J-886           	194.146133
 J-889           	28.814728
 J-89            	119.644814
 J-890           	31.826090
 J-892           	32.438274
 J-893           	40.719250
 J-894           	34.128223
 J-895           	165.256638
 J-896           	63.401054
 J-897           	63.802681
 J-898           	61.851933
 J-899           	60.092808
 J-9             	194.299973
 J-90            	24.206152
 J-900           	63.526867
 J-901           	64.406883
 J-905           	45.521275
 J-906           	167.232758
 J-907           	26.466909
 J-908           	27.677666
 J-909           	107.404396
 J-91            	34.702274
 J-911           	42.309841
 J-912           	92.768379
 J-914           	85.501442
 J-916           	120.000000
 J-917           	75.744858
 J-918           	160.785492
 J-919           	120.000000
 J-92            	58.245934
 J-920           	120.000000
 J-921           	120.000000
 J-922           	120.000000
 J-923           	114.328255
 J-925           	122.811440
 J-928           	151.692871
 J-93            	41.532387
 J-930           	191.407272
 J-931           	120.000000
 J-932           	120.000000
 J-933           	180.543884
 J-934           	93.187943
 J-935           	14.856724
 J-936           	23.806273
 J-937           	118.978210
 J-939           	122.825371
 J-94            	43.788326
 J-940           	104.932320
 J-941           	58.720100
 J-942           	120.000000
 J-943           	48.189232
 J-944           	50.380234
 J-945           	26.318056
 J-946           	48.346699
 J-95            	115.670822
 J-951           	17.559072
 J-953           	102.991669
 J-954           	113.626495
 J-955           	113.791092
 J-957           	113.637794
 J-958           	76.417084
 J-959           	76.501137
 J-96            	85.697464
 J-960           	84.586296
 J-961           	76.675056
 J-962           	88.949463
 J-963           	92.402641
 J-964           	79.213142
 J-965           	174.455124
 J-967           	16.420431
 J-97            	72.922668
 J-970           	43.585621
 J-971           	43.883793
 J-974           	44.203384
 J-977           	44.567078
 J-978           	45.039856
 J-979           	120.000000
 J-98            	73.269394
 J-980           	120.000000
 J-981           	13.019788
 J-983           	12.697219
 J-984           	12.603263
 J-985           	9.082889
 J-986           	12.979873
 J-987           	7.789924
 J-989           	23.481834
 J-99            	115.670815
 J-991           	15.562439
 J-993           	10.042999
 J-994           	14.902513
 J-995           	10.621289
 J-996           	10.892409
 J-997           	11.982001
 J-998           	11.362558
 J-999           	12.614378
 O-Kelly_Fork    	42.499485
 I-Kelly_Fork_1  	44.013233
 I-Knob_Botttom  	53.038631
 O-Ogden_Vest    	76.636292
 I-Output_Pump   	60.702991
 O-Perkins_Madden	11.198133
 I-Possum_trot   	119.764992
 O-Rock_Forka    	120.000000
 I-Short_Fork    	71.995094
 I-Slone_FK      	72.803131
 O-Slone_Fork_1  	65.708534
 I-Trace_Caney   	73.247086
 I-Wiley_Fork    	113.113350
 I-Wilson_Branch 	92.227135
 I-Wolfepen_Creek	34.747265
 O-Yellow_Creek  	41.569012
 I-1410_Pump     	120.000000
 I-AV-1          	20.929537
 O-AV-10         	34.668182
 O-AV-100        	65.063644
 O-AV-102        	14.772444
 O-AV-103        	71.000481
 O-AV-104        	91.276787
 O-AV-105        	72.004646
 O-AV-106        	72.414948
 O-AV-107        	41.792286
 O-AV-108        	45.188236
 O-AV-109        	41.849152
 O-AV-11         	61.487537
 O-AV-110        	72.048058
 O-AV-111        	72.851738
 O-AV-112        	28.931255
 O-AV-113        	123.978783
 O-AV-114        	72.856056
 O-AV-115        	119.859505
 O-AV-116        	73.640404
 O-AV-117        	73.236206
 O-AV-118        	72.864853
 O-AV-119        	70.659775
 O-AV-12         	63.954113
 O-AV-120        	63.462597
 O-AV-121        	60.095516
 O-AV-122        	68.009949
 O-AV-123        	42.521709
 O-AV-124        	128.744873
 O-AV-125        	63.750793
 O-AV-126        	63.524708
 O-AV-127        	17.566479
 O-AV-128        	41.296143
 O-AV-129        	61.047344
 O-AV-13         	83.596573
 O-AV-130        	41.975388
 O-AV-131        	63.440800
 O-AV-132        	120.000000
 O-AV-133        	120.000000
 O-AV-134        	157.572403
 O-AV-135        	128.653381
 O-AV-136        	59.830902
 O-AV-137        	60.251228
 O-AV-138        	55.762508
 O-AV-139        	21.732435
 O-AV-14         	63.627647
 O-AV-140        	19.307867
 O-AV-141        	52.400116
 O-AV-142        	53.644070
 O-AV-143        	65.885963
 O-AV-144        	52.392788
 O-AV-145        	85.945366
 O-AV-147        	88.898705
 O-AV-148        	47.566711
 O-AV-149        	120.000000
 O-AV-15         	65.150276
 O-AV-150        	49.492916
 O-AV-151        	91.824013
 O-AV-152        	19.312920
 O-AV-153        	91.306076
 O-AV-154        	48.681347
 O-AV-155        	47.697594
 O-AV-156        	47.562057
 O-AV-157        	27.143433
 O-AV-158        	54.097702
 O-AV-159        	55.724487
 O-AV-16         	10.849867
 O-AV-160        	55.171715
 O-AV-161        	60.274281
 O-AV-162        	120.000000
 O-AV-163        	54.884125
 O-AV-164        	19.144848
 O-AV-165        	61.817371
 O-AV-166        	62.217907
 O-AV-167        	64.822289
 O-AV-168        	129.851715
 O-AV-169        	64.215965
 O-AV-17         	23.695166
 O-AV-170        	64.822578
 O-AV-171        	66.566452
 O-AV-172        	66.575279
 O-AV-173        	68.389671
 O-AV-174        	68.601540
 O-AV-175        	120.000000
 O-AV-176        	18.619268
 O-AV-177        	68.802956
 O-AV-178        	69.296555
 O-AV-179        	118.772301
 O-AV-18         	120.000000
 O-AV-180        	69.485519
 O-AV-181        	69.849495
 O-AV-182        	71.659134
 O-AV-183        	76.139191
 O-AV-184        	74.100433
 O-AV-185        	75.811569
 O-AV-186        	74.706963
 O-AV-187        	76.501137
 O-AV-188        	18.032484
 O-AV-189        	36.156597
 O-AV-19         	120.000000
 O-AV-190        	61.434227
 O-AV-191        	120.000000
 O-AV-192        	114.375854
 O-AV-193        	81.230049
 O-AV-194        	84.723419
 O-AV-195        	84.514114
 O-AV-196        	84.780869
 O-AV-197        	86.986740
 O-AV-198        	87.128952
 O-AV-199        	87.124901
 O-AV-2          	84.046867
 O-AV-20         	120.000000
 O-AV-200        	17.837198
 O-AV-201        	62.712040
 O-AV-202        	93.359070
 O-AV-203        	94.360855
 O-AV-204        	97.914490
 O-AV-205        	95.443283
 O-AV-206        	85.707489
 O-AV-207        	85.828781
 O-AV-208        	89.653824
 O-AV-209        	84.640335
 O-AV-21         	120.000000
 O-AV-210        	80.444550
 O-AV-211        	0.166667
 O-AV-212        	62.463139
 O-AV-213        	104.464584
 O-AV-214        	84.747360
 O-AV-215        	84.540436
 O-AV-216        	84.773079
 O-AV-217        	85.060829
 O-AV-218        	85.403549
 O-AV-219        	85.403549
 O-AV-220        	84.573364
 O-AV-221        	89.792725
 O-AV-222        	0.583333
 O-AV-224        	120.000000
 O-AV-225        	101.665161
 O-AV-226        	105.603394
 O-AV-227        	93.926071
 O-AV-228        	149.913147
 O-AV-229        	95.919128
 O-AV-23         	26.426245
 O-AV-230        	95.109856
 O-AV-231        	93.117050
 O-AV-232        	120.000000
 O-AV-233        	120.000000
 O-AV-234        	98.391457
 O-AV-235        	47.413292
 O-AV-236        	102.769585
 O-AV-237        	103.813438
 O-AV-238        	104.445625
 O-AV-239        	61.967564
 O-AV-24         	119.627640
 O-AV-240        	104.317970
 O-AV-241        	105.658569
 O-AV-242        	105.746887
 O-AV-243        	105.705696
 O-AV-244        	172.650070
 O-AV-245        	193.978699
 O-AV-246        	48.191341
 O-AV-247        	90.956963
 O-AV-248        	90.747887
 O-AV-249        	102.260490
 O-AV-25         	34.646225
 O-AV-250        	113.324966
 O-AV-251        	111.598068
 O-AV-252        	56.763645
 O-AV-253        	111.504478
 O-AV-254        	116.403664
 O-AV-255        	120.095802
 O-AV-256        	118.384605
 O-AV-257        	49.182701
 O-AV-258        	117.761681
 O-AV-259        	120.000000
 O-AV-26         	26.542313
 O-AV-260        	99.515053
 O-AV-261        	120.000000
 O-AV-262        	25.385204
 O-AV-263        	113.699005
 O-AV-264        	92.361694
 O-AV-265        	111.257935
 O-AV-266        	120.000000
 O-AV-267        	115.446289
 O-AV-268        	21.036509
 O-AV-269        	116.424286
 O-AV-27         	27.766502
 O-AV-270        	113.865440
 O-AV-271        	123.392479
 O-AV-272        	135.210785
 O-AV-273        	146.456100
 O-AV-274        	33.419121
 O-AV-275        	73.081383
 O-AV-276        	32.468864
 O-AV-277        	117.600357
 O-AV-278        	117.693932
 O-AV-279        	15.949862
 O-AV-28         	28.947861
 O-AV-280        	120.000000
 O-AV-281        	117.682854
 O-AV-282        	117.682739
 O-AV-283        	124.483147
 O-AV-284        	115.673668
 O-AV-286        	119.735329
 O-AV-287        	117.915596
 O-AV-288        	108.637177
 O-AV-289        	105.376419
 O-AV-29         	23.628492
 O-AV-290        	36.166553
 O-AV-291        	120.000000
 O-AV-292        	51.364311
 O-AV-293        	16.626873
 O-AV-294        	73.280861
 O-AV-295        	14.244867
 O-AV-296        	2.617202
 O-AV-297        	3.131181
 O-AV-298        	20.419846
 O-AV-3          	44.556587
 O-AV-300        	20.932291
 O-AV-301        	12.432250
 O-AV-302        	46.118927
 O-AV-303        	29.738602
 O-AV-304        	30.627388
 O-AV-305        	33.877281
 O-AV-306        	35.754929
 O-AV-307        	46.752708
 O-AV-308        	35.304901
 O-AV-309        	35.352684
 O-AV-310        	34.813251
 O-AV-312        	63.355217
 O-AV-313        	33.498806
 O-AV-314        	27.243668
 O-AV-315        	27.409803
 O-AV-316        	11.879445
 O-AV-317        	11.861436
 O-AV-318        	12.014517
 O-AV-319        	18.644650
 O-AV-320        	2.962187
 O-AV-321        	17.264622
 O-AV-322        	17.732204
 O-AV-323        	83.016045
 O-AV-325        	17.584343
 O-AV-326        	17.559998
 O-AV-327        	18.097679
 O-AV-328        	17.817080
 O-AV-329        	42.102104
 O-AV-330        	44.431301
 O-AV-331        	18.146040
 O-AV-332        	18.046320
 O-AV-333        	10.005690
 O-AV-335        	74.035980
 O-AV-336        	18.103168
 O-AV-337        	121.369019
 O-AV-338        	18.272459
 O-AV-339        	18.380919
 O-AV-34         	32.795219
 O-AV-340        	18.164839
 O-AV-341        	32.075813
 O-AV-342        	44.808842
 O-AV-343        	21.953325
 O-AV-344        	20.323626
 O-AV-345        	19.764374
 O-AV-346        	75.746529
 O-AV-347        	20.205324
 O-AV-348        	20.014156
 O-AV-35         	43.284142
 O-AV-350        	10.667387
 O-AV-351        	31.069557
 O-AV-353        	21.170231
 O-AV-354        	20.920149
 O-AV-355        	20.838333
 O-AV-356        	21.115993
 O-AV-357        	87.059395
 O-AV-358        	21.092384
 O-AV-359        	21.115993
 O-AV-36         	32.044971
 O-AV-360        	21.433384
 O-AV-361        	18.111141
 O-AV-364        	27.944395
 O-AV-365        	115.631340
 O-AV-366        	77.745911
 O-AV-367        	117.704552
 O-AV-368        	87.142654
 O-AV-369        	117.207703
 O-AV-37         	162.941376
 O-AV-370        	124.420441
 O-AV-371        	124.127640
 O-AV-372        	120.906242
 O-AV-373        	122.640907
 O-AV-374        	122.742043
 O-AV-375        	15.850335
 O-AV-376        	32.309711
 O-AV-377        	118.048225
 O-AV-378        	118.168030
 O-AV-379        	79.060760
 O-AV-38         	34.856022
 O-AV-380        	114.061111
 O-AV-381        	131.616501
 O-AV-382        	141.713516
 O-AV-383        	71.410309
 O-AV-384        	130.141403
 O-AV-385        	63.881737
 O-AV-388        	32.108677
 O-AV-389        	11.494103
 O-AV-39         	41.705498
 O-AV-390        	73.938301
 O-AV-393        	117.860344
 O-AV-394        	117.760048
 O-AV-395        	117.784599
 O-AV-396        	117.491669
 O-AV-398        	131.712097
 O-AV-399        	95.011177
 O-AV-40         	46.067745
 O-AV-400        	30.009098
 O-AV-401        	26.321241
 O-AV-402        	65.515846
 O-AV-403        	11.353637
 O-AV-404        	65.797859
 O-AV-405        	114.183746
 O-AV-407        	86.396683
 O-AV-408        	115.873695
 O-AV-409        	115.756264
 O-AV-41         	22.559649
 O-AV-410        	115.717842
 O-AV-411        	144.229630
 O-AV-412        	78.024696
 O-AV-413        	29.171431
 O-AV-414        	139.413681
 O-AV-416        	16.719646
 O-AV-418        	113.919701
 O-AV-42         	45.999973
 O-AV-420        	115.799988
 O-AV-421        	115.369270
 O-AV-422        	120.414116
 O-AV-423        	83.759804
 O-AV-424        	108.822540
 O-AV-425        	15.653551
 O-AV-427        	84.314674
 O-AV-428        	143.246536
 O-AV-429        	160.306366
 O-AV-430        	169.002426
 O-AV-431        	159.117599
 O-AV-432        	27.783350
 O-AV-433        	27.978731
 O-AV-434        	26.481789
 O-AV-435        	32.481846
 O-AV-436        	41.933830
 O-AV-437        	11.895416
 O-AV-438        	42.129387
 O-AV-439        	20.061890
 O-AV-44         	42.679951
 O-AV-441        	32.824989
 O-AV-442        	32.430649
 O-AV-443        	32.741657
 O-AV-444        	53.360844
 O-AV-445        	26.401388
 O-AV-446        	46.724789
 O-AV-447        	49.127625
 O-AV-448        	120.988098
 O-AV-449        	48.412155
 O-AV-450        	23.576361
 O-AV-451        	48.429100
 O-AV-454        	75.590523
 O-AV-456        	190.181305
 O-AV-457        	190.532059
 O-AV-458        	39.125408
 O-AV-459        	83.557991
 O-AV-461        	26.111799
 O-AV-462        	37.692474
 O-AV-463        	25.618528
 O-AV-464        	37.798866
 O-AV-465        	37.242222
 O-AV-466        	31.975559
 O-AV-467        	33.408962
 O-AV-468        	33.898350
 O-AV-469        	45.684311
 O-AV-47         	42.798412
 O-AV-470        	134.895828
 O-AV-472        	45.050804
 O-AV-473        	45.370049
 O-AV-474        	78.119781
 O-AV-475        	77.878006
 O-AV-476        	34.694939
 O-AV-477        	78.578415
 O-AV-478        	76.457329
 O-AV-479        	76.934357
 O-AV-48         	40.872478
 O-AV-480        	44.167896
 O-AV-49         	41.247185
 O-AV-5          	44.592060
 O-AV-50         	56.324406
 O-AV-51         	13.146108
 O-AV-52         	82.955284
 O-AV-53         	12.455434
 O-AV-54         	103.628159
 O-AV-55         	125.501144
 O-AV-56         	122.346390
 O-AV-58         	119.993271
 O-AV-59         	119.500717
 O-AV-6          	61.618004
 O-AV-60         	120.430595
 O-AV-61         	120.182976
 O-AV-62         	36.140717
 O-AV-63         	34.673828
 O-AV-64         	27.489084
 O-AV-65         	11.228915
 O-AV-66         	27.524426
 O-AV-67         	34.022789
 O-AV-68         	119.195473
 O-AV-69         	24.969370
 O-AV-7          	57.045658
 O-AV-70         	25.106453
 O-AV-71         	120.000000
 O-AV-72         	35.165714
 O-AV-73         	38.600986
 O-AV-74         	41.590900
 O-AV-75         	35.557430
 O-AV-76         	37.670109
 O-AV-77         	13.066887
 O-AV-78         	38.357986
 O-AV-79         	119.735245
 O-AV-8          	64.293396
 O-AV-80         	48.729618
 O-AV-81         	41.466263
 O-AV-82         	40.006077
 O-AV-83         	40.460197
 O-AV-84         	38.603428
 O-AV-85         	40.841084
 O-AV-86         	42.780304
 O-AV-87         	44.684055
 O-AV-88         	14.241101
 O-AV-89         	13.134137
 O-AV-9          	64.044960
 O-AV-90         	11.931088
 O-AV-91         	14.213913
 O-AV-92         	14.197629
 O-AV-93         	14.346786
 O-AV-94         	13.329962
 O-AV-95         	12.987255
 O-AV-96         	31.958548
 O-AV-97         	10.052864
 O-AV-98         	33.799873
 O-AV-99         	180.266006
 O-Dry_Creek     	75.209709
 O-Elk_Glenn     	33.097603
 O-Hollybush     	91.259613
 I-HWY_80a       	64.101097
 I-Kelly_Fork    	42.307590
 O-Kelly_Fork_1  	44.149307
 O-Knob_Botttom  	53.053352
 I-Ogden_Vest    	76.627380
 O-Output_Pump   	61.090729
 I-Perkins_Madden	11.233730
 O-Possum_trot   	119.751282
 I-Rock_Forka    	120.000000
 O-Short_Fork    	71.923912
 O-Slone_FK      	72.767220
 I-Slone_Fork_1  	67.312813
 O-Trace_Caney   	73.527962
 O-Wiley_Fork    	113.112213
 O-Wilson_Branch 	92.284477
 O-Wolfepen_Creek	34.679119
 I-Yellow_Creek  	41.426308

[SOURCES]
;Node            	Type        	Quality     	Pattern

[REACTIONS]
;Type     	Pipe/Tank       	Coefficient


[REACTIONS]
 Order Bulk            	0.00
 Order Tank            	0.00
 Order Wall            	0
 Global Bulk           	0.000000
 Global Wall           	0.000000
 Limiting Potential    	0
 Roughness Correlation 	0

[MIXING]
;Tank            	Model

[TIMES]
 Duration           	0:00 
 Hydraulic Timestep 	0:05 
 Quality Timestep   	0:05 
 Pattern Timestep   	1:00 
 Pattern Start      	0:00 
 Report Timestep    	1:00 
 Report Start       	0:00 
 Start ClockTime    	0:00:00
 Statistic          	NONE

[REPORT]
 Status             	Full
 Summary            	No
 Page               	0

[OPTIONS]
 Units              	GPM
 Headloss           	H-W
 Specific Gravity   	1.000000
 Viscosity          	1.000000
 Trials             	50
 Accuracy           	0.00010000
 CHECKFREQ          	2
 MAXCHECK           	10
 DAMPLIMIT          	0.00000000
 Unbalanced         	Continue 10
 Pattern            	1
 Demand Multiplier  	1.0000
 Emitter Exponent   	0.5000
 Quality            	AGE mg/L
 Diffusivity        	0.050000
 Tolerance          	0.01000000

[COORDINATES]
;Node            	X-Coord           	Y-Coord
O-1410_Pump     	5758243.940       	3623358.710       
O-AV-1          	5723699.590       	3612848.000       
I-AV-10         	5746850.700       	3616629.000       
I-AV-100        	5744998.850       	3646465.000       
I-AV-102        	5744732.750       	3630501.000       
I-AV-103        	5754830.240       	3655751.000       
I-AV-104        	5755238.740       	3656873.000       
I-AV-105        	5755691.080       	3657982.000       
I-AV-106        	5755691.190       	3657986.000       
I-AV-107        	5752443.830       	3661572.000       
I-AV-108        	5749139.380       	3625707.000       
I-AV-109        	5743728.130       	3664404.000       
I-AV-11         	5734016.900       	3685934.000       
I-AV-110        	5756252.240       	3658236.000       
I-AV-111        	5756987.810       	3658414.000       
I-AV-112        	5690349.860       	3648370.000       
I-AV-113        	5762209.290       	3634916.000       
I-AV-114        	5757130.300       	3658480.000       
I-AV-115        	5750415.180       	3644030.000       
I-AV-116        	5757122.860       	3658480.000       
I-AV-117        	5757123.780       	3658477.000       
I-AV-118        	5757121.520       	3658477.000       
I-AV-119        	5757249.660       	3658607.000       
I-AV-12         	5734133.090       	3686114.000       
I-AV-120        	5757263.420       	3658681.000       
I-AV-121        	5751967.860       	3625571.000       
I-AV-122        	5757258.750       	3658676.000       
I-AV-123        	5757339.990       	3658663.000       
I-AV-124        	5762589.930       	3634525.000       
I-AV-125        	5757333.620       	3658653.000       
I-AV-126        	5757792.650       	3659214.000       
I-AV-127        	5745172.410       	3634236.000       
I-AV-128        	5758029.130       	3659458.000       
I-AV-129        	5758026.730       	3659461.000       
I-AV-13         	5761545.360       	3640356.000       
I-AV-130        	5758063.630       	3659492.000       
I-AV-131        	5757393.550       	3658111.000       
I-AV-132        	5757438.070       	3657900.750       
I-AV-133        	5757413.060       	3657991.010       
I-AV-134        	5756258.940       	3623770.870       
I-AV-135        	5762588.330       	3634523.000       
I-AV-136        	5758809.480       	3662452.000       
I-AV-137        	5759025.020       	3662121.000       
I-AV-138        	5758883.510       	3663300.000       
I-AV-139        	5698330.160       	3657277.000       
I-AV-14         	5735112.790       	3687358.000       
I-AV-140        	5746093.850       	3635353.000       
I-AV-141        	5759068.780       	3663530.000       
I-AV-142        	5759068.090       	3663520.000       
I-AV-143        	5759650.590       	3664054.000       
I-AV-144        	5759644.880       	3664055.000       
I-AV-145        	5760057.060       	3664429.000       
I-AV-147        	5761734.790       	3665143.000       
I-AV-148        	5761740.590       	3665161.000       
I-AV-149        	5758116.030       	3622927.600       
I-AV-15         	5738336.340       	3689778.000       
I-AV-150        	5761734.330       	3665158.000       
I-AV-151        	5761998.510       	3659880.000       
I-AV-152        	5746102.940       	3635351.000       
I-AV-153        	5761756.610       	3655877.000       
I-AV-154        	5762572.660       	3667271.000       
I-AV-155        	5762769.670       	3667590.000       
I-AV-156        	5762798.750       	3667573.000       
I-AV-157        	5690785.320       	3647921.000       
I-AV-158        	5763630.710       	3669312.000       
I-AV-159        	5767050.790       	3674275.000       
I-AV-16         	5733354.450       	3619321.000       
I-AV-160        	5767026.920       	3674315.000       
I-AV-161        	5779310.670       	3689082.000       
I-AV-162        	5758220.260       	3623448.720       
I-AV-163        	5766956.830       	3674835.000       
I-AV-164        	5745850.930       	3636178.000       
I-AV-165        	5782570.870       	3688363.000       
I-AV-166        	5782975.530       	3687960.000       
I-AV-167        	5783909.040       	3685342.000       
I-AV-168        	5764368.860       	3634129.000       
I-AV-169        	5784252.000       	3685471.000       
I-AV-17         	5698769.030       	3647078.000       
I-AV-170        	5783425.840       	3685278.000       
I-AV-171        	5782131.270       	3677934.000       
I-AV-172        	5782139.520       	3677934.000       
I-AV-173        	5782136.320       	3677930.000       
I-AV-174        	5781865.750       	3677088.000       
I-AV-175        	5758182.360       	3623524.520       
I-AV-176        	5745844.500       	3643025.000       
I-AV-177        	5782406.960       	3676193.000       
I-AV-178        	5780605.860       	3671980.000       
I-AV-179        	5761846.060       	3636359.000       
I-AV-18         	5741090.640       	3690416.680       
I-AV-180        	5781860.350       	3671241.000       
I-AV-181        	5781867.730       	3671208.000       
I-AV-182        	5780738.490       	3670493.000       
I-AV-183        	5781725.680       	3668587.000       
I-AV-184        	5781745.340       	3668615.000       
I-AV-185        	5781732.770       	3668597.000       
I-AV-186        	5781739.130       	3668604.000       
I-AV-187        	5781609.010       	3668116.000       
I-AV-188        	5746521.860       	3645222.810       
I-AV-189        	5722919.940       	3611920.000       
I-AV-19         	5741328.770       	3689744.320       
I-AV-190        	5745281.600       	3697382.000       
I-AV-191        	5746655.020       	3609630.000       
I-AV-192        	5786526.940       	3657546.000       
I-AV-193        	5782300.380       	3666552.000       
I-AV-194        	5783787.200       	3665091.000       
I-AV-195        	5783955.570       	3664935.000       
I-AV-196        	5784632.060       	3663563.000       
I-AV-197        	5783817.860       	3661431.000       
I-AV-198        	5784818.450       	3659303.000       
I-AV-199        	5784804.050       	3659309.000       
I-AV-2          	5761545.060       	3640354.000       
I-AV-20         	5741146.670       	3689478.180       
I-AV-201        	5745279.590       	3697409.000       
I-AV-202        	5786572.740       	3657499.000       
I-AV-203        	5788583.080       	3655351.000       
I-AV-204        	5790590.700       	3654147.000       
I-AV-205        	5790596.530       	3654151.000       
I-AV-206        	5786406.320       	3662602.000       
I-AV-207        	5787108.740       	3662143.000       
I-AV-208        	5790284.320       	3660308.000       
I-AV-209        	5779269.480       	3667468.000       
I-AV-21         	5740676.050       	3689939.940       
I-AV-210        	5779147.910       	3667625.000       
I-AV-211        	5722416.290       	3620024.620       
I-AV-212        	5745277.350       	3697409.000       
I-AV-213        	5746839.060       	3645412.740       
I-AV-214        	5775570.480       	3666667.000       
I-AV-215        	5774945.350       	3664795.000       
I-AV-216        	5773774.530       	3664056.000       
I-AV-217        	5773775.100       	3664058.000       
I-AV-218        	5772770.900       	3663521.000       
I-AV-219        	5772767.550       	3663513.000       
I-AV-220        	5775272.850       	3665077.000       
I-AV-221        	5778147.740       	3657234.000       
I-AV-222        	5722444.530       	3620581.080       
I-AV-224        	5714312.830       	3616942.170       
I-AV-225        	5774719.670       	3651237.000       
I-AV-226        	5747556.960       	3645620.000       
I-AV-227        	5774809.770       	3643742.000       
I-AV-228        	5774775.890       	3643754.000       
I-AV-229        	5774781.340       	3643753.000       
I-AV-23         	5692371.600       	3673183.000       
I-AV-230        	5774802.080       	3643744.000       
I-AV-231        	5775632.720       	3642703.000       
I-AV-232        	5774926.280       	3640130.490       
I-AV-233        	5774961.600       	3640059.050       
I-AV-234        	5774338.230       	3640177.000       
I-AV-235        	5721408.630       	3618993.650       
I-AV-236        	5773456.830       	3638630.000       
I-AV-237        	5773361.350       	3638608.000       
I-AV-238        	5748035.470       	3645626.000       
I-AV-239        	5759025.870       	3645778.000       
I-AV-24         	5760862.450       	3635685.000       
I-AV-240        	5773596.870       	3638596.000       
I-AV-241        	5774258.110       	3638825.000       
I-AV-242        	5774232.680       	3638787.000       
I-AV-243        	5774235.640       	3638787.000       
I-AV-244        	5774834.510       	3637788.000       
I-AV-245        	5775365.260       	3634847.000       
I-AV-246        	5721159.290       	3620424.000       
I-AV-247        	5777941.180       	3654198.000       
I-AV-248        	5777938.570       	3654204.000       
I-AV-249        	5777762.770       	3653832.000       
I-AV-25         	5746819.190       	3616635.000       
I-AV-250        	5749102.720       	3645207.000       
I-AV-251        	5782878.620       	3650917.000       
I-AV-252        	5748658.280       	3653354.000       
I-AV-253        	5782846.020       	3650934.000       
I-AV-254        	5782089.450       	3649604.000       
I-AV-255        	5781727.440       	3648714.000       
I-AV-256        	5782408.010       	3647345.000       
I-AV-257        	5721719.280       	3617787.000       
I-AV-258        	5782383.520       	3647353.000       
I-AV-259        	5783366.300       	3642206.000       
I-AV-26         	5693163.280       	3674737.000       
I-AV-260        	5789143.850       	3645848.000       
I-AV-261        	5790464.330       	3642955.000       
I-AV-262        	5691263.880       	3656840.000       
I-AV-263        	5749339.390       	3645053.000       
I-AV-264        	5791406.450       	3647295.000       
I-AV-265        	5792949.380       	3646386.000       
I-AV-266        	5723541.050       	3620508.160       
I-AV-267        	5794630.030       	3644010.190       
I-AV-268        	5723693.840       	3612836.000       
I-AV-269        	5795382.140       	3645319.000       
I-AV-27         	5695205.430       	3675734.000       
I-AV-270        	5795408.410       	3645305.000       
I-AV-271        	5795807.700       	3645203.150       
I-AV-272        	5796808.950       	3643145.000       
I-AV-273        	5798316.280       	3641919.000       
I-AV-274        	5709159.770       	3663662.000       
I-AV-275        	5749803.630       	3644801.000       
I-AV-276        	5711213.190       	3665010.000       
I-AV-277        	5763687.660       	3637311.000       
I-AV-278        	5763683.270       	3637307.000       
I-AV-279        	5735344.130       	3621463.000       
I-AV-28         	5696671.440       	3676163.000       
I-AV-280        	5722973.490       	3620791.940       
I-AV-281        	5763682.530       	3637308.000       
I-AV-282        	5763404.210       	3637340.000       
I-AV-283        	5763584.850       	3637350.000       
I-AV-284        	5765635.970       	3636631.000       
I-AV-286        	5767931.630       	3635433.000       
I-AV-287        	5750740.450       	3642920.000       
I-AV-288        	5767190.090       	3637235.000       
I-AV-289        	5772410.840       	3638542.000       
I-AV-29         	5698769.190       	3647105.000       
I-AV-290        	5722956.000       	3611941.000       
I-AV-291        	5723727.410       	3620793.650       
I-AV-292        	5729006.400       	3681427.000       
I-AV-293        	5722721.170       	3622562.000       
I-AV-294        	5722667.320       	3610232.000       
I-AV-295        	5728123.290       	3623995.000       
I-AV-296        	5722240.860       	3626538.000       
I-AV-297        	5722216.280       	3626561.000       
I-AV-298        	5720909.820       	3628936.000       
I-AV-3          	5728626.340       	3674035.000       
I-AV-300        	5720914.950       	3628956.000       
I-AV-301        	5737141.900       	3624416.000       
I-AV-302        	5720913.520       	3628933.000       
I-AV-303        	5721861.080       	3632070.000       
I-AV-304        	5721860.030       	3632083.000       
I-AV-305        	5720878.630       	3633784.000       
I-AV-306        	5722087.500       	3635629.000       
I-AV-307        	5723816.960       	3608364.000       
I-AV-308        	5722083.880       	3635622.000       
I-AV-309        	5722052.440       	3635591.000       
I-AV-310        	5721370.650       	3638595.220       
I-AV-312        	5746581.330       	3699205.000       
I-AV-313        	5721514.940       	3639995.000       
I-AV-314        	5723628.460       	3643099.000       
I-AV-315        	5723629.640       	3643118.000       
I-AV-316        	5723695.640       	3643337.000       
I-AV-317        	5724181.880       	3642279.000       
I-AV-318        	5724173.670       	3642318.000       
I-AV-319        	5723392.530       	3645243.000       
I-AV-320        	5726072.700       	3620794.000       
I-AV-321        	5720832.190       	3648554.000       
I-AV-322        	5717529.200       	3649353.000       
I-AV-323        	5755211.840       	3704676.000       
I-AV-325        	5718555.190       	3650154.000       
I-AV-326        	5718718.410       	3649744.000       
I-AV-327        	5716290.510       	3654635.000       
I-AV-328        	5716383.070       	3654655.000       
I-AV-329        	5716471.880       	3654727.000       
I-AV-330        	5716475.220       	3654729.000       
I-AV-331        	5714860.940       	3655045.000       
I-AV-332        	5714860.850       	3655043.000       
I-AV-333        	5730402.600       	3619597.000       
I-AV-335        	5753914.680       	3704519.000       
I-AV-336        	5714974.150       	3654982.000       
I-AV-337        	5750646.830       	3641194.000       
I-AV-338        	5712590.340       	3656447.000       
I-AV-339        	5712605.290       	3656428.000       
I-AV-34         	5698773.030       	3677668.000       
I-AV-340        	5712167.580       	3648828.000       
I-AV-341        	5712153.750       	3648822.000       
I-AV-342        	5711296.020       	3646632.000       
I-AV-343        	5712336.960       	3645659.000       
I-AV-344        	5708524.070       	3656233.000       
I-AV-345        	5709357.300       	3655383.000       
I-AV-346        	5754902.870       	3704674.000       
I-AV-347        	5708460.380       	3657177.000       
I-AV-348        	5708460.210       	3657174.000       
I-AV-35         	5690332.000       	3648359.000       
I-AV-350        	5733356.810       	3619331.000       
I-AV-351        	5711512.120       	3659571.000       
I-AV-353        	5707040.670       	3658632.000       
I-AV-354        	5703686.290       	3655729.000       
I-AV-355        	5703688.820       	3655731.000       
I-AV-356        	5703814.680       	3655515.000       
I-AV-357        	5755407.390       	3704729.000       
I-AV-358        	5703687.630       	3655725.000       
I-AV-359        	5703805.060       	3655506.000       
I-AV-36         	5698735.540       	3677697.000       
I-AV-360        	5703854.560       	3653320.000       
I-AV-361        	5735605.010       	3622098.000       
I-AV-364        	5691261.720       	3656420.000       
I-AV-365        	5749669.480       	3639638.000       
I-AV-366        	5749908.630       	3638084.000       
I-AV-367        	5750657.990       	3636511.000       
I-AV-368        	5755406.130       	3704727.000       
I-AV-369        	5750682.680       	3636512.000       
I-AV-37         	5699726.360       	3678436.000       
I-AV-370        	5748943.870       	3634930.000       
I-AV-371        	5747545.290       	3634167.000       
I-AV-372        	5747546.030       	3634165.000       
I-AV-373        	5747615.900       	3631785.000       
I-AV-374        	5747615.690       	3631785.000       
I-AV-375        	5736296.080       	3621756.000       
I-AV-376        	5691223.430       	3654159.000       
I-AV-377        	5747839.310       	3630470.000       
I-AV-378        	5747836.230       	3630428.000       
I-AV-379        	5755370.330       	3704713.000       
I-AV-38         	5746871.360       	3616435.000       
I-AV-380        	5747971.330       	3630329.000       
I-AV-381        	5749866.170       	3630516.000       
I-AV-382        	5749873.790       	3630517.000       
I-AV-383        	5750933.040       	3630363.000       
I-AV-384        	5750940.200       	3630441.000       
I-AV-385        	5752678.570       	3629687.000       
I-AV-388        	5690852.780       	3651887.000       
I-AV-389        	5736275.140       	3621998.000       
I-AV-39         	5704137.980       	3679058.000       
I-AV-390        	5756832.710       	3706778.000       
I-AV-393        	5751451.950       	3636687.000       
I-AV-394        	5751461.520       	3636682.000       
I-AV-395        	5751464.390       	3636679.000       
I-AV-396        	5752508.330       	3636957.000       
I-AV-398        	5752949.750       	3637652.000       
I-AV-399        	5754688.110       	3639181.000       
I-AV-40         	5704139.870       	3679071.000       
I-AV-400        	5691002.230       	3651793.000       
I-AV-401        	5691366.760       	3646246.000       
I-AV-402        	5755489.400       	3640809.000       
I-AV-403        	5736276.670       	3621964.000       
I-AV-404        	5755494.430       	3640806.000       
I-AV-405        	5756532.630       	3641280.000       
I-AV-407        	5754885.320       	3642103.000       
I-AV-408        	5754150.630       	3635936.000       
I-AV-409        	5755108.050       	3635556.000       
I-AV-41         	5701502.930       	3646004.000       
I-AV-410        	5755065.500       	3635535.000       
I-AV-411        	5754975.330       	3635066.000       
I-AV-412        	5757193.950       	3707068.000       
I-AV-413        	5690249.540       	3649210.000       
I-AV-414        	5754966.900       	3635064.000       
I-AV-416        	5736824.320       	3621715.000       
I-AV-418        	5755955.450       	3635596.000       
I-AV-42         	5705347.820       	3680864.000       
I-AV-420        	5756716.010       	3635003.000       
I-AV-421        	5756846.100       	3634851.000       
I-AV-422        	5757523.120       	3635727.000       
I-AV-423        	5759047.010       	3707533.000       
I-AV-424        	5758593.530       	3636380.000       
I-AV-425        	5738824.790       	3624569.000       
I-AV-427        	5759047.680       	3707529.000       
I-AV-428        	5761664.590       	3707410.000       
I-AV-429        	5750506.560       	3709678.000       
I-AV-430        	5748066.720       	3707933.000       
I-AV-431        	5750595.970       	3710506.000       
I-AV-432        	5689592.600       	3658047.000       
I-AV-433        	5688236.060       	3658576.000       
I-AV-434        	5691381.080       	3646234.000       
I-AV-435        	5689334.190       	3666440.000       
I-AV-436        	5687682.600       	3663996.000       
I-AV-437        	5736527.790       	3624325.000       
I-AV-438        	5687696.210       	3663973.000       
I-AV-439        	5741998.840       	3624960.000       
I-AV-44         	5705395.520       	3682253.000       
I-AV-441        	5689222.310       	3668326.000       
I-AV-442        	5689232.160       	3668333.000       
I-AV-443        	5689226.290       	3668298.000       
I-AV-444        	5687271.340       	3669080.000       
I-AV-445        	5698246.930       	3669876.000       
I-AV-446        	5692361.170       	3651196.000       
I-AV-447        	5698107.780       	3671800.000       
I-AV-448        	5759821.420       	3636256.000       
I-AV-449        	5698084.010       	3671778.000       
I-AV-450        	5743594.190       	3623356.000       
I-AV-451        	5698104.930       	3671789.000       
I-AV-454        	5699586.890       	3672239.000       
I-AV-456        	5699795.230       	3671333.000       
I-AV-457        	5699796.160       	3671330.000       
I-AV-458        	5694344.250       	3649553.000       
I-AV-459        	5760885.290       	3638830.000       
I-AV-461        	5700527.190       	3669450.000       
I-AV-462        	5700622.100       	3669319.000       
I-AV-463        	5743702.750       	3623136.000       
I-AV-464        	5700382.170       	3668776.000       
I-AV-465        	5702269.000       	3667329.000       
I-AV-466        	5707348.860       	3667555.000       
I-AV-467        	5715450.680       	3665955.000       
I-AV-468        	5715454.180       	3665949.000       
I-AV-469        	5715457.550       	3665954.000       
I-AV-47         	5708091.670       	3681760.000       
I-AV-470        	5761189.740       	3639616.000       
I-AV-472        	5715874.320       	3666063.000       
I-AV-473        	5717521.820       	3665907.000       
I-AV-474        	5722767.760       	3666469.000       
I-AV-475        	5722763.630       	3666472.000       
I-AV-476        	5746854.290       	3616632.000       
I-AV-477        	5722773.600       	3666465.000       
I-AV-478        	5722775.910       	3666500.000       
I-AV-479        	5722869.330       	3666742.000       
I-AV-48         	5711493.230       	3681232.000       
I-AV-480        	5724807.390       	3665935.000       
I-AV-49         	5716499.000       	3680333.000       
I-AV-5          	5728619.920       	3674028.000       
I-AV-50         	5738314.220       	3683031.000       
I-AV-51         	5730359.500       	3632193.000       
I-AV-52         	5751901.120       	3688267.000       
I-AV-53         	5736503.280       	3626324.000       
I-AV-54         	5753571.030       	3688598.000       
I-AV-55         	5736828.830       	3675300.000       
I-AV-56         	5737123.720       	3673549.000       
I-AV-58         	5737135.330       	3673543.000       
I-AV-59         	5737477.960       	3672120.000       
I-AV-6          	5732312.010       	3682066.000       
I-AV-60         	5737613.580       	3671860.000       
I-AV-61         	5736063.310       	3670080.000       
I-AV-62         	5722946.080       	3611939.000       
I-AV-63         	5745741.080       	3624190.000       
I-AV-64         	5703506.710       	3642209.000       
I-AV-65         	5735666.720       	3621355.000       
I-AV-66         	5703515.960       	3642207.000       
I-AV-67         	5699851.740       	3641789.000       
I-AV-68         	5761428.920       	3635754.000       
I-AV-69         	5699980.660       	3641537.000       
I-AV-7          	5732314.420       	3682067.000       
I-AV-70         	5699984.110       	3641524.000       
I-AV-71         	5700470.420       	3637874.240       
I-AV-72         	5694424.090       	3632215.000       
I-AV-73         	5747436.360       	3624479.000       
I-AV-74         	5694413.240       	3632231.000       
I-AV-75         	5695830.030       	3630452.000       
I-AV-76         	5701798.670       	3632250.000       
I-AV-77         	5737805.130       	3627871.000       
I-AV-78         	5701802.600       	3632066.000       
I-AV-79         	5761490.090       	3635642.000       
I-AV-8          	5734115.740       	3686095.000       
I-AV-80         	5701803.690       	3632062.000       
I-AV-81         	5701810.670       	3632090.000       
I-AV-82         	5705356.380       	3631961.000       
I-AV-83         	5705439.460       	3631981.000       
I-AV-84         	5747436.830       	3624469.000       
I-AV-85         	5705527.520       	3631936.000       
I-AV-86         	5706198.170       	3631883.000       
I-AV-87         	5712738.270       	3631948.000       
I-AV-88         	5728946.880       	3652051.000       
I-AV-89         	5737832.410       	3627868.000       
I-AV-9          	5734119.840       	3686095.000       
I-AV-90         	5736526.940       	3624330.000       
I-AV-91         	5728947.420       	3652046.000       
I-AV-92         	5728941.940       	3652046.000       
I-AV-93         	5728964.050       	3652067.000       
I-AV-94         	5728510.850       	3650361.000       
I-AV-95         	5728241.680       	3647583.000       
I-AV-96         	5735687.630       	3651084.000       
I-AV-97         	5726506.350       	3636546.000       
I-AV-98         	5735861.300       	3651028.000       
I-AV-99         	5744929.310       	3646426.000       
I-Dry_Creek     	5781730.980       	3668610.000       
I-Elk_Glenn     	5709201.110       	3663677.000       
I-Hollybush     	5761512.980       	3656698.000       
O-HWY_80a       	5733795.230       	3686077.000       
J-1             	5699850.630       	3641790.000       
J-10            	5757393.640       	3658110.000       
J-100           	5755722.350       	3658110.000       
J-1000          	5735600.290       	3622078.000       
J-1001          	5736270.970       	3621983.000       
J-1003          	5736274.880       	3621750.000       
J-1005          	5743384.490       	3664367.000       
J-1006          	5754828.800       	3655751.000       
J-1007          	5756936.760       	3648437.000       
J-1008          	5748921.950       	3650231.000       
J-1009          	5744992.260       	3646451.000       
J-101           	5762734.800       	3653335.000       
J-1010          	5746552.010       	3645361.000       
J-1011          	5745120.100       	3623877.000       
J-1012          	5721832.660       	3679356.000       
J-1013          	5727187.530       	3679991.000       
J-1014          	5728471.930       	3680245.000       
J-1017          	5752786.720       	3636941.000       
J-102           	5762935.390       	3653120.000       
J-1020          	5755560.870       	3643966.000       
J-1022          	5754689.100       	3639181.000       
J-1023          	5779237.510       	3667454.000       
J-1024          	5780115.300       	3667884.000       
J-1026          	5779321.290       	3667304.000       
J-1027          	5758300.790       	3623320.810       
J-1028          	5758457.130       	3623221.320       
J-1029          	5757850.730       	3623443.990       
J-103           	5747431.710       	3624473.000       
J-1032          	5758428.700       	3623396.610       
J-1033          	5747747.760       	3631244.000       
J-1035          	5747545.240       	3634159.000       
J-1037          	5748940.600       	3634933.000       
J-104           	5759829.660       	3636274.000       
J-1040          	5728964.000       	3652062.000       
J-1044          	5728804.670       	3648911.000       
J-1045          	5759700.110       	3636357.000       
J-1047          	5760886.450       	3638827.000       
J-1048          	5761543.760       	3640356.000       
J-1049          	5761543.470       	3640359.000       
J-105           	5751907.510       	3688291.000       
J-1051          	5761847.710       	3636351.000       
J-1053          	5711478.850       	3646888.000       
J-1054          	5712338.930       	3645658.000       
J-1055          	5711261.650       	3647733.000       
J-1056          	5711323.420       	3646692.000       
J-1057          	5713026.050       	3645099.000       
J-1058          	5711320.490       	3655769.000       
J-106           	5748230.560       	3689847.000       
J-1060          	5739683.400       	3689850.000       
J-1061          	5739679.670       	3689246.000       
J-1062          	5739051.690       	3689199.000       
J-1063          	5739048.480       	3689192.000       
J-1064          	5738585.740       	3688954.000       
J-1065          	5733814.280       	3686042.000       
J-1068          	5734047.370       	3685992.000       
J-107           	5756473.580       	3651170.000       
J-1070          	5766036.040       	3673809.000       
J-1073          	5696613.800       	3676270.000       
J-1074          	5718703.280       	3666041.000       
J-1075          	5722725.360       	3664855.000       
J-1076          	5720593.750       	3672703.000       
J-1079          	5690028.670       	3662112.000       
J-108           	5756935.720       	3648438.000       
J-1080          	5689521.540       	3661379.000       
J-1081          	5689561.510       	3662206.000       
J-1082          	5689538.010       	3662293.000       
J-1083          	5688668.870       	3659758.000       
J-1084          	5689724.510       	3660703.000       
J-1085          	5688669.480       	3659754.000       
J-1086          	5688179.780       	3659296.000       
J-1087          	5688662.610       	3659741.000       
J-1088          	5688114.990       	3659807.000       
J-109           	5721859.590       	3632078.000       
J-1090          	5689787.160       	3670008.000       
J-1091          	5705398.830       	3682249.000       
J-1092          	5705104.750       	3682723.000       
J-1093          	5706653.930       	3682262.000       
J-1095          	5708091.250       	3681764.000       
J-1097          	5711492.090       	3681235.000       
J-1098          	5755491.250       	3640804.000       
J-1099          	5756497.140       	3641294.000       
J-11            	5690850.100       	3651886.000       
J-110           	5722077.660       	3632344.000       
J-1101          	5756716.190       	3641669.000       
J-1102          	5757326.570       	3641416.000       
J-1105          	5754887.410       	3642099.000       
J-111           	5759282.670       	3647022.000       
J-1111          	5700387.040       	3668775.000       
J-1112          	5703707.650       	3665422.000       
J-1113          	5700622.450       	3669328.000       
J-1114          	5700190.640       	3668844.000       
J-1115          	5703005.850       	3670164.000       
J-1116          	5707946.390       	3671230.000       
J-1117          	5704161.890       	3669720.000       
J-1119          	5690250.640       	3649213.000       
J-112           	5757505.650       	3646941.000       
J-1122          	5690786.330       	3647925.000       
J-1125          	5703689.300       	3655727.000       
J-1128          	5749869.220       	3630517.000       
J-1129          	5750931.120       	3630381.000       
J-113           	5767626.950       	3673997.000       
J-1130          	5752679.300       	3629687.000       
J-1131          	5752685.540       	3629682.000       
J-1132          	5705247.030       	3663170.000       
J-1133          	5705248.550       	3663171.000       
J-1135          	5714759.820       	3668816.000       
J-1136          	5690746.390       	3664824.000       
J-1137          	5689881.810       	3665795.000       
J-1138          	5690665.720       	3662933.000       
J-1139          	5690751.820       	3664826.000       
J-114           	5768545.310       	3673474.000       
J-1140          	5689677.880       	3662462.000       
J-1141          	5689506.140       	3662848.000       
J-1142          	5689665.400       	3662465.000       
J-1143          	5689674.800       	3662467.000       
J-1144          	5689451.500       	3661638.000       
J-1145          	5688241.370       	3658582.000       
J-1149          	5689590.740       	3658052.000       
J-115           	5721511.980       	3639996.000       
J-1150          	5689592.950       	3658053.000       
J-1151          	5736524.410       	3681930.000       
J-1152          	5740004.610       	3683686.000       
J-1153          	5739979.730       	3683631.000       
J-1154          	5741347.200       	3683804.000       
J-1155          	5742753.640       	3683002.000       
J-1156          	5742710.200       	3682956.000       
J-1157          	5725571.420       	3630924.000       
J-1159          	5754969.270       	3635065.000       
J-116           	5722221.560       	3626555.000       
J-1160          	5754012.580       	3635440.000       
J-1161          	5755066.190       	3635541.000       
J-1164          	5755392.870       	3634463.000       
J-1166          	5755862.270       	3636397.000       
J-1168          	5764358.000       	3634172.000       
J-1169          	5765014.720       	3632635.000       
J-117           	5722965.290       	3625851.000       
J-1170          	5765802.230       	3631742.000       
J-1172          	5763400.740       	3637341.000       
J-1174          	5765633.410       	3636633.000       
J-1176          	5766789.440       	3636806.000       
J-1178          	5723919.250       	3620649.770       
J-1179          	5723760.980       	3620597.020       
J-118           	5720915.750       	3628933.000       
J-1180          	5723309.000       	3620725.580       
J-1181          	5723362.090       	3620796.000       
J-1184          	5767929.930       	3635428.000       
J-1185          	5769203.490       	3634410.000       
J-1187          	5776183.560       	3637059.000       
J-1188          	5700418.960       	3640068.000       
J-1189          	5699785.460       	3638951.000       
J-119           	5722134.460       	3626564.000       
J-1190          	5699987.220       	3641525.000       
J-1192          	5699851.630       	3641789.000       
J-1193          	5691081.740       	3654694.000       
J-1194          	5691262.470       	3656418.000       
J-1196          	5691842.020       	3657078.000       
J-1197          	5691843.090       	3657079.000       
J-1198          	5704507.100       	3654768.000       
J-12            	5774218.110       	3638837.000       
J-120           	5721468.530       	3630122.000       
J-1200          	5703807.250       	3655510.000       
J-1201          	5703869.530       	3653372.000       
J-1202          	5704194.810       	3654796.000       
J-1204          	5702814.160       	3651671.000       
J-1206          	5707268.370       	3658640.000       
J-1207          	5744999.400       	3646465.000       
J-1208          	5707040.360       	3658632.000       
J-1209          	5706556.600       	3659290.000       
J-121           	5761158.640       	3635682.000       
J-1210          	5707046.560       	3658625.000       
J-1211          	5706993.290       	3658286.000       
J-1212          	5706960.570       	3659103.000       
J-1213          	5706556.140       	3659298.000       
J-1214          	5707064.590       	3658631.000       
J-1215          	5706961.590       	3659105.000       
J-1216          	5706992.870       	3658285.000       
J-1217          	5712164.790       	3648828.000       
J-1218          	5713329.160       	3648748.000       
J-1219          	5710722.680       	3648004.000       
J-122           	5758895.130       	3636447.000       
J-1221          	5711278.630       	3646621.000       
J-1222          	5709896.780       	3645172.000       
J-1223          	5711921.490       	3644692.000       
J-1225          	5716473.110       	3654731.000       
J-1227          	5718530.250       	3650196.000       
J-1229          	5719012.540       	3649247.000       
J-123           	5721853.950       	3631335.000       
J-1230          	5723199.870       	3620961.510       
J-1237          	5722372.260       	3619887.360       
J-1238          	5722415.760       	3620183.020       
J-1239          	5722383.910       	3620125.620       
J-124           	5726289.790       	3634114.000       
J-1240          	5722365.790       	3620088.070       
J-1241          	5722380.030       	3620055.690       
J-1243          	5746794.180       	3616458.000       
J-1244          	5746758.540       	3616395.000       
J-1245          	5746071.500       	3614778.000       
J-1247          	5746838.130       	3616642.000       
J-1249          	5746837.020       	3616665.000       
J-125           	5726718.560       	3638930.000       
J-1250          	5746838.810       	3616667.000       
J-1251          	5746838.420       	3616659.000       
J-1252          	5743711.320       	3623228.000       
J-1253          	5743503.490       	3622749.000       
J-1254          	5743698.220       	3623134.000       
J-1256          	5743595.380       	3623357.000       
J-1257          	5736270.990       	3621982.000       
J-126           	5727247.370       	3639904.000       
J-1260          	5737805.910       	3627869.000       
J-1261          	5744655.190       	3630483.000       
J-1267          	5723715.960       	3607312.000       
J-1269          	5705550.490       	3632399.000       
J-127           	5729626.630       	3641437.000       
J-1271          	5707989.040       	3632512.000       
J-1272          	5779820.860       	3671691.000       
J-1275          	5781908.310       	3671201.000       
J-1276          	5782747.170       	3667970.000       
J-1277          	5790939.760       	3659345.000       
J-1278          	5784814.710       	3659309.000       
J-1279          	5784271.080       	3658942.000       
J-128           	5722715.790       	3622563.000       
J-1280          	5784272.680       	3658948.000       
J-1282          	5786135.570       	3657895.000       
J-1283          	5786135.560       	3657893.000       
J-1285          	5787271.710       	3658035.000       
J-1287          	5772229.510       	3655461.000       
J-1288          	5778219.860       	3656526.000       
J-1289          	5777994.920       	3654440.000       
J-129           	5766903.010       	3636618.000       
J-1291          	5736498.200       	3626319.000       
J-1293          	5736497.910       	3626321.000       
J-1294          	5736502.600       	3626324.000       
J-1295          	5736498.060       	3626320.000       
J-1297          	5752111.080       	3620024.000       
J-13            	5740538.660       	3690271.570       
J-130           	5709366.380       	3655345.000       
J-1301          	5775632.090       	3642706.000       
J-1303          	5774773.620       	3643756.000       
J-1306          	5792943.100       	3646384.000       
J-1309          	5749865.880       	3630515.000       
J-131           	5707785.810       	3652013.000       
J-1311          	5731987.680       	3680907.000       
J-1312          	5790263.070       	3643616.000       
J-1313          	5790978.900       	3639271.000       
J-1314          	5758371.850       	3623619.270       
J-1315          	5758310.270       	3623012.880       
J-1316          	5758286.580       	3623140.790       
J-1318          	5782139.080       	3677937.000       
J-1319          	5782370.420       	3675945.000       
J-132           	5720637.540       	3648144.000       
J-1320          	5782598.900       	3673872.000       
J-1321          	5780604.520       	3672003.000       
J-1322          	5777140.880       	3686013.000       
J-1323          	5779277.500       	3689085.000       
J-1324          	5704138.080       	3679058.000       
J-1325          	5704136.220       	3679057.000       
J-1326          	5704569.630       	3678979.000       
J-1327          	5704572.850       	3678976.000       
J-1328          	5705343.970       	3680865.000       
J-133           	5753059.620       	3650029.000       
J-1330          	5745735.510       	3624185.000       
J-1331          	5783628.110       	3686527.000       
J-1332          	5743595.780       	3623362.000       
J-1333          	5743502.720       	3622749.000       
J-1334          	5741997.140       	3624965.000       
J-1335          	5738822.690       	3624576.000       
J-1336          	5758632.420       	3622747.580       
J-1337          	5753124.990       	3627644.000       
J-1338          	5752119.690       	3620023.000       
J-1339          	5745123.450       	3623876.000       
J-134           	5752363.060       	3649711.000       
J-1340          	5723021.180       	3664781.000       
J-1341          	5736270.940       	3621983.000       
J-1344          	5779789.710       	3671751.000       
J-1345          	5779303.160       	3667746.000       
J-1346          	5775101.350       	3665303.000       
J-1347          	5775080.050       	3659698.000       
J-1348          	5778214.780       	3656523.000       
J-1349          	5777773.330       	3653843.000       
J-135           	5751140.200       	3648358.000       
J-1350          	5783532.100       	3650855.000       
J-1351          	5761080.890       	3633390.000       
J-1352          	5761518.180       	3630781.000       
J-1353          	5761519.940       	3630779.000       
J-1354          	5761082.280       	3633395.000       
J-1355          	5760995.170       	3633208.000       
J-1356          	5760993.460       	3633205.000       
J-1357          	5752732.060       	3629108.000       
J-1358          	5752687.740       	3629684.000       
J-136           	5736228.700       	3679529.000       
J-1360          	5699799.410       	3671661.000       
J-1362          	5720591.290       	3672704.000       
J-1363          	5718821.260       	3677139.000       
J-1364          	5718817.570       	3677138.000       
J-1365          	5699801.240       	3671661.000       
J-1366          	5699754.470       	3671673.000       
J-1367          	5735570.170       	3671166.000       
J-1368          	5705391.020       	3682182.000       
J-1369          	5705104.530       	3682725.000       
J-137           	5736052.570       	3679067.000       
J-1371          	5745536.590       	3707327.000       
J-1372          	5746244.380       	3707728.000       
J-1373          	5746243.770       	3707729.000       
J-1375          	5750596.430       	3710511.000       
J-1376          	5758203.790       	3707346.000       
J-1377          	5759221.420       	3707310.000       
J-1378          	5758841.750       	3705554.000       
J-1379          	5774856.410       	3640065.330       
J-138           	5745968.540       	3658156.000       
J-1380          	5774873.520       	3640165.000       
J-1381          	5775633.740       	3642707.000       
J-1382          	5748939.910       	3634933.000       
J-1383          	5752677.800       	3629692.000       
J-1384          	5752732.110       	3629113.000       
J-1385          	5750940.680       	3630444.000       
J-1386          	5751550.910       	3631302.000       
J-1387          	5751555.230       	3631304.000       
J-1388          	5750645.730       	3630637.000       
J-1389          	5750647.510       	3630639.000       
J-139           	5747946.830       	3654765.000       
J-1390          	5763580.250       	3637334.000       
J-1394          	5763872.460       	3638850.000       
J-1395          	5763401.070       	3637344.000       
J-1396          	5755060.900       	3688927.000       
J-1397          	5698770.890       	3613645.000       
J-1398          	5701839.060       	3612502.000       
J-1399          	5712046.110       	3603458.000       
J-14            	5739752.460       	3690678.000       
J-140           	5716623.660       	3654841.000       
J-1400          	5688116.100       	3659808.000       
J-1401          	5688577.200       	3669110.000       
J-1402          	5687273.530       	3669083.000       
J-1403          	5686081.200       	3670455.000       
J-1404          	5689786.000       	3670010.000       
J-1405          	5687665.470       	3664027.000       
J-1406          	5714762.210       	3668816.000       
J-1407          	5703537.640       	3670909.000       
J-1408          	5703928.370       	3671240.000       
J-1409          	5703539.740       	3670908.000       
J-141           	5716477.210       	3654730.000       
J-1410          	5703929.890       	3671237.000       
J-1411          	5703125.640       	3670784.000       
J-1412          	5703127.180       	3670783.000       
J-1413          	5706655.230       	3682264.000       
J-1414          	5708092.390       	3681765.000       
J-1415          	5696561.380       	3675301.000       
J-1416          	5697749.490       	3676445.000       
J-1417          	5698733.320       	3677694.000       
J-1418          	5699067.830       	3677823.000       
J-1419          	5699737.670       	3678413.000       
J-142           	5716500.150       	3680341.000       
J-1420          	5698332.100       	3657283.000       
J-1421          	5702360.330       	3657143.000       
J-1422          	5703698.480       	3655743.000       
J-1423          	5704193.130       	3654794.000       
J-1424          	5703867.840       	3653372.000       
J-1425          	5702815.790       	3651670.000       
J-1426          	5782294.640       	3666551.000       
J-1427          	5783784.880       	3665095.000       
J-1428          	5775394.740       	3683289.000       
J-1429          	5775396.430       	3683297.000       
J-143           	5715638.530       	3680901.000       
J-1430          	5772626.250       	3682047.000       
J-1431          	5767626.480       	3673991.000       
J-1432          	5767133.930       	3673445.000       
J-1433          	5707337.520       	3641412.000       
J-1434          	5707162.960       	3639881.000       
J-1435          	5707161.460       	3639879.000       
J-1436          	5699853.700       	3641791.000       
J-1437          	5692369.080       	3651209.000       
J-1438          	5690253.780       	3649213.000       
J-144           	5736826.120       	3675302.000       
J-1440          	5748049.460       	3645609.000       
J-1441          	5766032.530       	3673816.000       
J-1442          	5764388.450       	3672383.000       
J-1443          	5762764.070       	3667805.000       
J-1444          	5760579.530       	3667489.000       
J-1445          	5760053.510       	3664425.000       
J-1446          	5761862.880       	3662689.000       
J-1447          	5759653.760       	3664055.000       
J-1448          	5718531.710       	3650192.000       
J-1449          	5723682.360       	3643416.000       
J-145           	5736016.000       	3677106.000       
J-1450          	5718338.380       	3643627.000       
J-1451          	5717483.210       	3648928.000       
J-1452          	5717480.890       	3648930.000       
J-1453          	5795898.450       	3645458.000       
J-1454          	5796810.460       	3643152.000       
J-1455          	5799258.350       	3640428.000       
J-1456          	5774680.440       	3664666.000       
J-1457          	5774555.190       	3664443.000       
J-1458          	5773925.270       	3664254.000       
J-1459          	5773450.190       	3664004.000       
J-146           	5716556.610       	3665420.000       
J-1460          	5772891.520       	3663769.000       
J-1461          	5764427.350       	3634064.000       
J-1462          	5764428.920       	3634063.000       
J-1463          	5765013.270       	3632635.000       
J-1465          	5761783.880       	3635845.000       
J-1466          	5761846.000       	3636354.000       
J-1467          	5763872.650       	3638852.000       
J-1468          	5765632.920       	3636634.000       
J-1469          	5758880.400       	3663301.000       
J-147           	5717304.140       	3665612.000       
J-1470          	5758045.940       	3662092.000       
J-1471          	5759243.160       	3661826.000       
J-1472          	5703139.430       	3646808.000       
J-1473          	5702200.820       	3644346.000       
J-1474          	5703062.830       	3642532.000       
J-1475          	5703271.500       	3641672.000       
J-1476          	5697542.430       	3657888.000       
J-1477          	5723086.760       	3665724.000       
J-148           	5760057.250       	3664429.000       
J-1480          	5699787.390       	3638947.000       
J-1481          	5697495.690       	3631143.000       
J-1482          	5730402.090       	3619590.000       
J-1483          	5731476.330       	3620052.000       
J-1484          	5735337.470       	3621466.000       
J-1485          	5736192.460       	3621989.000       
J-1486          	5736829.930       	3621704.000       
J-1487          	5746069.270       	3614779.000       
J-149           	5761622.850       	3665094.000       
J-1490          	5779321.310       	3667301.000       
J-1491          	5780119.480       	3667885.000       
J-1492          	5781591.040       	3668007.000       
J-1493          	5750219.910       	3643562.000       
J-1494          	5750222.120       	3643562.000       
J-1495          	5750425.020       	3644024.000       
J-1496          	5750689.190       	3644487.000       
J-1497          	5750690.310       	3644489.000       
J-1498          	5751038.500       	3644445.000       
J-1499          	5750039.350       	3645623.000       
J-15            	5764337.270       	3634184.000       
J-150           	5758903.480       	3636445.000       
J-1501          	5713646.180       	3656316.000       
J-1502          	5711320.760       	3655772.000       
J-1503          	5711191.090       	3653962.000       
J-1504          	5710482.100       	3651423.000       
J-1505          	5711996.070       	3649156.000       
J-1506          	5728939.490       	3652092.000       
J-1507          	5728959.530       	3652062.000       
J-1508          	5728505.730       	3650359.000       
J-1509          	5728802.290       	3648911.000       
J-151           	5724406.070       	3640949.000       
J-1510          	5728273.210       	3647578.000       
J-1511          	5728229.880       	3647332.000       
J-1512          	5728238.560       	3647588.000       
J-1513          	5728228.930       	3647330.000       
J-1515          	5749672.930       	3639635.000       
J-1516          	5748417.130       	3641131.000       
J-1517          	5750674.370       	3641984.000       
J-1518          	5749891.560       	3643194.000       
J-1519          	5749694.630       	3643235.000       
J-152           	5691261.540       	3656421.000       
J-1520          	5749697.310       	3643235.000       
J-1521          	5689227.820       	3668338.000       
J-1522          	5688238.680       	3658581.000       
J-1523          	5749684.210       	3663095.000       
J-1524          	5747523.760       	3663673.000       
J-1525          	5745395.080       	3664633.000       
J-1526          	5744058.440       	3664443.000       
J-1527          	5728056.750       	3646016.000       
J-1528          	5728056.320       	3646010.000       
J-1529          	5743238.630       	3664693.000       
J-153           	5691085.200       	3656595.000       
J-1530          	5745622.190       	3658548.000       
J-1531          	5755244.730       	3656869.000       
J-1532          	5754862.560       	3655791.000       
J-1533          	5747465.660       	3646123.000       
J-1535          	5747463.690       	3646125.000       
J-1536          	5746706.890       	3645449.940       
J-1537          	5746556.120       	3645177.770       
J-1538          	5745849.790       	3643023.000       
J-1539          	5745850.490       	3643025.000       
J-154           	5763307.280       	3634571.000       
J-1540          	5744474.490       	3641971.000       
J-1541          	5744400.770       	3638508.000       
J-1542          	5745850.350       	3636176.000       
J-1543          	5755409.340       	3658198.000       
J-1544          	5754181.210       	3658956.000       
J-1545          	5753173.090       	3659968.000       
J-1546          	5752449.430       	3661580.000       
J-1547          	5751253.420       	3662980.000       
J-1548          	5747804.050       	3700627.000       
J-1549          	5749430.220       	3702551.000       
J-155           	5716379.660       	3654660.000       
J-1550          	5748009.680       	3700340.000       
J-1551          	5746580.140       	3699209.000       
J-1552          	5746577.890       	3699211.000       
J-1553          	5757327.680       	3641419.000       
J-1554          	5756713.640       	3641674.000       
J-1555          	5755559.290       	3643969.000       
J-1556          	5754886.280       	3642097.000       
J-1557          	5752859.130       	3643893.000       
J-1559          	5759121.120       	3660718.000       
J-156           	5697493.710       	3631143.000       
J-1560          	5758030.000       	3659460.000       
J-1561          	5723711.180       	3607310.000       
J-1562          	5722959.210       	3611967.000       
J-1563          	5725621.140       	3610998.000       
J-1564          	5723367.720       	3621105.380       
J-1565          	5722981.670       	3619972.010       
J-1566          	5726073.220       	3620801.000       
J-1567          	5750395.840       	3615094.000       
J-1568          	5750396.500       	3615090.000       
J-1569          	5749137.220       	3625714.000       
J-157           	5761476.240       	3635635.000       
J-1570          	5746749.820       	3630405.000       
J-1571          	5749868.290       	3630517.000       
J-1572          	5747750.570       	3631246.000       
J-1573          	5747614.430       	3631781.000       
J-1574          	5746066.880       	3615749.000       
J-1575          	5746063.150       	3615748.000       
J-1576          	5736496.410       	3626321.000       
J-1577          	5737901.180       	3627874.000       
J-1578          	5743570.840       	3630175.000       
J-1579          	5744655.770       	3630483.000       
J-158           	5705394.500       	3682690.000       
J-1580          	5751912.730       	3688288.000       
J-1581          	5751900.520       	3688288.000       
J-1582          	5748233.410       	3689846.000       
J-1584          	5755728.130       	3705219.000       
J-1586          	5755605.810       	3704397.000       
J-1587          	5755369.220       	3704713.000       
J-1588          	5755394.720       	3704725.000       
J-159           	5723952.820       	3620232.530       
J-1590          	5753934.660       	3704509.000       
J-1591          	5755607.160       	3704396.000       
J-1592          	5735117.250       	3687367.000       
J-1593          	5745853.660       	3636174.000       
J-1594          	5746092.540       	3635362.000       
J-1595          	5746100.840       	3635359.000       
J-1597          	5746106.000       	3635348.000       
J-1598          	5745169.820       	3634232.000       
J-1599          	5734022.050       	3685936.000       
J-16            	5736049.930       	3679065.000       
J-160           	5696720.580       	3676676.000       
J-1600          	5733055.210       	3684180.000       
J-1601          	5728926.280       	3674256.000       
J-1602          	5728645.040       	3674023.000       
J-1604          	5770488.680       	3638258.000       
J-1605          	5771156.670       	3638171.000       
J-1606          	5770477.910       	3638258.000       
J-1607          	5770490.320       	3637812.000       
J-1608          	5770490.410       	3637810.000       
J-1609          	5770274.130       	3638432.000       
J-161           	5696617.350       	3676782.000       
J-1610          	5772406.290       	3638544.000       
J-1611          	5689573.340       	3648020.000       
J-1612          	5690790.170       	3647926.000       
J-1613          	5691380.530       	3646233.000       
J-1614          	5690940.070       	3644833.000       
J-1615          	5694352.800       	3649568.000       
J-1616          	5694762.780       	3648848.000       
J-1617          	5696407.960       	3647993.000       
J-1618          	5697468.940       	3647233.000       
J-1619          	5698777.020       	3647082.000       
J-162           	5696661.810       	3676072.000       
J-1620          	5705187.510       	3631880.000       
J-1621          	5706061.200       	3632450.000       
J-1622          	5695007.840       	3658211.000       
J-1623          	5696548.280       	3658916.000       
J-1624          	5750038.500       	3645625.000       
J-1625          	5749167.130       	3644918.000       
J-1626          	5749166.500       	3644917.000       
J-1627          	5749099.790       	3645201.000       
J-1628          	5751445.700       	3636022.000       
J-1629          	5751790.180       	3636469.000       
J-163           	5723024.830       	3620518.730       
J-1630          	5752944.190       	3637651.000       
J-1631          	5754691.530       	3639175.000       
J-1632          	5754693.300       	3639174.000       
J-1633          	5714230.760       	3617047.040       
J-1634          	5754857.300       	3655742.000       
J-1635          	5752183.780       	3653207.000       
J-1636          	5748924.100       	3650229.000       
J-1637          	5746888.020       	3648837.000       
J-1638          	5744991.280       	3646463.000       
J-164           	5722579.120       	3619988.000       
J-1640          	5747543.100       	3634158.000       
J-1641          	5750205.010       	3637575.000       
J-1642          	5750079.720       	3637768.000       
J-1643          	5750080.310       	3637766.000       
J-1644          	5691264.050       	3656424.000       
J-1645          	5689248.280       	3654330.000       
J-1646          	5691230.310       	3654166.000       
J-1647          	5690848.340       	3651885.000       
J-1648          	5713330.870       	3648746.000       
J-1649          	5710719.700       	3648004.000       
J-165           	5696680.870       	3676165.000       
J-1650          	5711326.720       	3646690.000       
J-1652          	5711918.460       	3644692.000       
J-1653          	5713030.570       	3645103.000       
J-1654          	5709278.760       	3655454.000       
J-1655          	5708483.990       	3657050.000       
J-1656          	5707063.930       	3658633.000       
J-1657          	5706233.330       	3659645.000       
J-1658          	5721394.320       	3638544.480       
J-166           	5735196.660       	3621007.000       
J-1661          	5722099.030       	3635532.000       
J-1662          	5720876.740       	3633791.000       
J-1663          	5721856.400       	3632071.000       
J-1664          	5721873.140       	3630693.000       
J-1665          	5720912.460       	3628947.000       
J-1667          	5720909.310       	3628946.000       
J-1668          	5719181.590       	3629860.000       
J-1669          	5720551.570       	3626485.000       
J-167           	5722835.700       	3619414.000       
J-1671          	5722232.970       	3626560.000       
J-1672          	5730272.960       	3626101.000       
J-1673          	5728118.280       	3623992.000       
J-1674          	5730275.590       	3626098.000       
J-1675          	5748018.580       	3645780.000       
J-1676          	5748021.460       	3645781.000       
J-1677          	5752786.750       	3636941.000       
J-1678          	5754010.450       	3635443.000       
J-168           	5721793.010       	3619017.000       
J-1680          	5755871.350       	3636391.000       
J-1681          	5755954.080       	3635602.000       
J-1683          	5756431.220       	3634845.000       
J-1684          	5756575.590       	3634618.000       
J-1685          	5757210.200       	3633837.000       
J-1686          	5757304.720       	3636486.000       
J-1687          	5758588.860       	3636382.000       
J-1689          	5761210.720       	3639588.000       
J-169           	5722481.440       	3619937.000       
J-1690          	5760887.860       	3638826.000       
J-1692          	5760791.200       	3640151.000       
J-1693          	5760795.030       	3640150.000       
J-1694          	5764307.300       	3644159.000       
J-1695          	5761377.390       	3635599.000       
J-1696          	5762567.790       	3634286.000       
J-1698          	5767929.670       	3635431.000       
J-1699          	5769205.290       	3634401.000       
J-17            	5735678.350       	3679663.000       
J-170           	5755679.880       	3636135.000       
J-1700          	5767184.030       	3637239.000       
J-1701          	5770059.870       	3638405.000       
J-1702          	5774213.740       	3638285.000       
J-1703          	5774652.370       	3639268.000       
J-1704          	5776187.960       	3637062.000       
J-1705          	5775596.940       	3634860.000       
J-1706          	5774333.420       	3640178.000       
J-1707          	5774875.460       	3640117.000       
J-1708          	5774645.910       	3649779.000       
J-1709          	5774717.260       	3651241.000       
J-171           	5741994.320       	3624967.000       
J-1710          	5782095.090       	3649703.000       
J-1711          	5781732.040       	3648725.000       
J-1712          	5782218.460       	3647656.000       
J-1713          	5780544.910       	3643540.000       
J-1714          	5784229.170       	3642073.000       
J-1715          	5792940.810       	3646383.000       
J-1716          	5757596.070       	3658921.000       
J-1717          	5757340.550       	3658658.000       
J-1718          	5756671.240       	3658198.000       
J-1719          	5756215.610       	3658242.000       
J-172           	5699071.110       	3672662.000       
J-1720          	5755736.860       	3657954.000       
J-1721          	5755652.730       	3658123.000       
J-1722          	5733057.290       	3652104.000       
J-1723          	5733188.240       	3652426.000       
J-1724          	5733561.830       	3652919.000       
J-1725          	5739956.860       	3670746.000       
J-1726          	5737158.730       	3673493.000       
J-1727          	5736824.130       	3675302.000       
J-1728          	5736014.330       	3677106.000       
J-1729          	5737854.640       	3683558.000       
J-173           	5752175.240       	3625556.900       
J-1730          	5715457.620       	3665952.000       
J-1731          	5715461.240       	3665952.000       
J-1732          	5700188.890       	3668845.000       
J-1733          	5703707.540       	3665420.000       
J-1734          	5700524.050       	3669442.000       
J-1735          	5701400.700       	3670192.000       
J-1736          	5701402.690       	3670193.000       
J-1737          	5701948.760       	3672915.000       
J-1738          	5701951.280       	3672914.000       
J-174           	5754884.160       	3623967.000       
J-175           	5779127.490       	3667672.000       
J-176           	5775605.250       	3666813.000       
J-177           	5782957.420       	3685017.000       
J-178           	5781508.770       	3683015.000       
J-179           	5783626.050       	3686532.000       
J-18            	5777141.920       	3686012.000       
J-180           	5699196.730       	3672725.000       
J-181           	5716482.580       	3654463.000       
J-182           	5718050.250       	3650882.000       
J-183           	5725555.100       	3630911.000       
J-184           	5699946.000       	3672324.000       
J-185           	5711493.430       	3681744.000       
J-186           	5755680.630       	3636133.000       
J-187           	5722100.600       	3635534.000       
J-188           	5721260.990       	3634700.000       
J-189           	5721411.240       	3638492.620       
J-19            	5778939.240       	3689235.000       
J-190           	5751273.420       	3636355.000       
J-191           	5778798.880       	3689373.000       
J-192           	5751277.560       	3636625.000       
J-193           	5751447.880       	3636662.000       
J-194           	5777774.170       	3653835.000       
J-195           	5783528.930       	3650853.000       
J-196           	5788949.760       	3645730.000       
J-197           	5750929.890       	3652120.000       
J-198           	5752180.990       	3653207.000       
J-199           	5706234.050       	3659644.000       
J-2             	5753170.190       	3660013.000       
J-20            	5744007.160       	3674955.000       
J-200           	5703704.510       	3655743.000       
J-201           	5754829.600       	3655754.000       
J-202           	5752789.000       	3636939.000       
J-203           	5762582.100       	3667264.000       
J-204           	5718121.610       	3679593.000       
J-205           	5735255.830       	3680638.000       
J-206           	5734330.110       	3681064.000       
J-207           	5756545.640       	3641354.000       
J-208           	5737160.430       	3673494.000       
J-209           	5719332.760       	3680158.000       
J-21            	5724171.400       	3642318.000       
J-210           	5718314.780       	3679867.000       
J-211           	5732315.720       	3682065.000       
J-212           	5731884.580       	3682957.000       
J-213           	5704613.880       	3662211.000       
J-214           	5706925.790       	3662116.000       
J-215           	5752473.630       	3636924.000       
J-216           	5764386.380       	3672385.000       
J-217           	5711010.990       	3655806.000       
J-218           	5709356.820       	3655385.000       
J-219           	5733124.530       	3681432.000       
J-22            	5702356.050       	3657137.000       
J-220           	5732340.080       	3681230.000       
J-221           	5733185.700       	3681471.000       
J-222           	5729420.350       	3682344.000       
J-223           	5728476.120       	3680251.000       
J-224           	5752510.160       	3636947.000       
J-225           	5768617.500       	3681250.000       
J-226           	5712910.250       	3664818.000       
J-227           	5712620.360       	3665617.000       
J-228           	5756215.550       	3658241.000       
J-229           	5755778.500       	3657900.000       
J-23            	5703072.090       	3661102.000       
J-230           	5735817.210       	3670597.000       
J-231           	5750676.440       	3641988.000       
J-232           	5736216.410       	3677431.000       
J-233           	5735974.320       	3678707.000       
J-234           	5709275.040       	3655452.000       
J-235           	5708510.560       	3656232.000       
J-236           	5745044.170       	3646560.000       
J-237           	5746886.950       	3648838.000       
J-238           	5749660.010       	3640268.000       
J-239           	5735765.220       	3651042.000       
J-24            	5714517.990       	3616928.500       
J-240           	5756832.280       	3706773.000       
J-241           	5755833.110       	3704227.000       
J-242           	5732033.950       	3680937.000       
J-243           	5730496.280       	3681473.000       
J-244           	5690624.280       	3634290.000       
J-245           	5751268.460       	3636363.000       
J-246           	5715856.510       	3665932.000       
J-247           	5752259.680       	3653402.000       
J-248           	5755496.500       	3657574.000       
J-249           	5750911.180       	3642916.000       
J-25            	5745908.960       	3698018.160       
J-250           	5749898.980       	3643203.000       
J-251           	5772642.880       	3682029.000       
J-252           	5698333.000       	3657280.000       
J-253           	5717221.290       	3663911.000       
J-254           	5702196.800       	3644344.000       
J-255           	5703059.290       	3642531.000       
J-256           	5758200.070       	3659521.000       
J-257           	5759123.290       	3660716.000       
J-258           	5757261.580       	3658677.000       
J-259           	5751272.140       	3636357.000       
J-26            	5746415.080       	3698563.000       
J-260           	5757538.060       	3623117.100       
J-261           	5758026.020       	3623605.060       
J-262           	5758013.520       	3623757.000       
J-263           	5756880.480       	3658956.880       
J-264           	5761430.450       	3707380.000       
J-265           	5761309.500       	3704294.000       
J-266           	5759220.810       	3707312.000       
J-267           	5758842.490       	3705556.000       
J-268           	5749668.340       	3640145.000       
J-269           	5692617.730       	3650992.000       
J-27            	5713643.750       	3656315.000       
J-270           	5759012.800       	3707758.000       
J-272           	5749435.160       	3702548.000       
J-273           	5728620.880       	3674018.000       
J-275           	5736214.300       	3677427.000       
J-276           	5738427.510       	3677483.000       
J-277           	5718788.930       	3677212.000       
J-278           	5761862.480       	3662687.000       
J-279           	5761994.450       	3659878.000       
J-28            	5742146.760       	3672212.000       
J-280           	5742707.850       	3682956.000       
J-281           	5741344.550       	3683801.000       
J-282           	5701803.330       	3632062.000       
J-283           	5705188.910       	3631878.000       
J-284           	5694421.700       	3632219.000       
J-285           	5695009.500       	3630844.000       
J-286           	5735118.570       	3687366.000       
J-288           	5741948.930       	3677791.000       
J-289           	5743121.790       	3677126.000       
J-29            	5705027.780       	3608389.000       
J-290           	5755403.580       	3658192.000       
J-291           	5754178.630       	3658954.000       
J-293           	5746581.390       	3699204.000       
J-294           	5709218.560       	3666066.000       
J-297           	5740191.990       	3692982.000       
J-299           	5708783.720       	3666211.830       
J-3             	5725496.320       	3678802.000       
J-30            	5755238.430       	3656873.000       
J-300           	5711148.750       	3665212.000       
J-301           	5709763.160       	3665468.000       
J-302           	5709180.740       	3663662.000       
J-303           	5710141.830       	3664687.000       
J-304           	5715457.550       	3665954.000       
J-305           	5722616.630       	3664779.000       
J-306           	5718829.310       	3665745.000       
J-307           	5732200.790       	3681273.000       
J-309           	5715242.590       	3665989.000       
J-31            	5754861.530       	3655793.000       
J-310           	5705751.900       	3632380.000       
J-311           	5744203.050       	3662302.000       
J-312           	5745620.170       	3658547.000       
J-313           	5735699.510       	3680979.000       
J-314           	5729468.970       	3682879.000       
J-315           	5738314.850       	3683028.000       
J-316           	5736525.450       	3681932.000       
J-317           	5743236.790       	3664184.000       
J-318           	5743196.830       	3677031.000       
J-319           	5744402.390       	3675276.000       
J-32            	5721396.580       	3638588.450       
J-320           	5729472.940       	3682899.000       
J-321           	5730027.540       	3684188.000       
J-322           	5765675.780       	3655509.000       
J-323           	5761501.410       	3656689.000       
J-324           	5772773.270       	3663520.000       
J-325           	5771025.480       	3664395.000       
J-326           	5703071.930       	3661105.000       
J-327           	5702542.480       	3661664.000       
J-328           	5752446.130       	3661579.000       
J-329           	5733569.250       	3652909.000       
J-33            	5706656.710       	3682260.000       
J-330           	5734439.180       	3654068.000       
J-332           	5747524.950       	3663672.000       
J-333           	5760224.150       	3654007.000       
J-334           	5759875.500       	3652154.000       
J-335           	5754857.540       	3655742.000       
J-336           	5756479.910       	3651203.000       
J-337           	5707993.120       	3632508.000       
J-338           	5710407.960       	3631632.000       
J-339           	5762767.290       	3667804.000       
J-34            	5721311.560       	3638602.000       
J-340           	5765855.030       	3665858.000       
J-345           	5722560.010       	3681502.000       
J-346           	5721505.590       	3684308.000       
J-347           	5744162.040       	3623270.000       
J-348           	5746109.440       	3617413.000       
J-349           	5752955.280       	3660072.450       
J-35            	5721270.910       	3638562.000       
J-350           	5747966.630       	3660309.000       
J-351           	5728120.080       	3623993.000       
J-352           	5719183.440       	3629859.000       
J-353           	5687686.340       	3663957.000       
J-354           	5686194.710       	3662287.000       
J-355           	5722454.350       	3648662.000       
J-356           	5710577.500       	3631259.000       
J-357           	5694680.500       	3628450.000       
J-358           	5712702.560       	3631946.000       
J-36            	5720921.360       	3638216.000       
J-360           	5715378.010       	3633671.000       
J-361           	5724538.540       	3642401.000       
J-362           	5740092.380       	3677511.000       
J-363           	5741237.880       	3674142.000       
J-364           	5737614.000       	3671867.000       
J-365           	5740436.500       	3671078.000       
J-366           	5737129.380       	3673550.000       
J-367           	5735281.150       	3672764.000       
J-368           	5753663.710       	3660916.000       
J-369           	5745762.100       	3678347.000       
J-37            	5753320.880       	3660022.000       
J-370           	5738175.150       	3683170.000       
J-371           	5739139.300       	3685432.000       
J-372           	5719009.420       	3677194.000       
J-373           	5758825.980       	3644811.000       
J-374           	5758881.930       	3663301.000       
J-375           	5754724.400       	3663141.000       
J-376           	5746787.110       	3657946.000       
J-377           	5728851.760       	3683438.000       
J-378           	5733058.370       	3681862.000       
J-379           	5758772.430       	3662439.000       
J-38            	5754166.080       	3660681.000       
J-380           	5758047.640       	3662093.000       
J-381           	5743211.770       	3682588.000       
J-382           	5716040.230       	3679095.000       
J-383           	5753555.290       	3649354.000       
J-384           	5702626.000       	3633400.000       
J-385           	5721730.100       	3630282.000       
J-386           	5721873.840       	3630696.000       
J-387           	5720552.810       	3626485.000       
J-388           	5722132.190       	3634710.000       
J-389           	5720163.020       	3641958.000       
J-39            	5746668.940       	3664084.000       
J-390           	5749220.640       	3652238.000       
J-391           	5775586.900       	3683228.000       
J-392           	5776026.340       	3679139.000       
J-393           	5766655.940       	3681025.000       
J-394           	5718977.610       	3637028.000       
J-395           	5691521.250       	3656764.000       
J-396           	5692878.080       	3656173.000       
J-397           	5743571.760       	3630175.000       
J-398           	5737901.610       	3627872.000       
J-4             	5724736.520       	3679148.000       
J-40            	5746864.250       	3664448.000       
J-400           	5728507.550       	3650361.000       
J-401           	5728964.050       	3652067.000       
J-402           	5730091.280       	3654331.000       
J-403           	5735759.450       	3651050.000       
J-404           	5722927.480       	3664969.000       
J-405           	5722729.580       	3664877.000       
J-406           	5686608.890       	3669846.000       
J-407           	5686768.420       	3668933.000       
J-409           	5692368.160       	3673180.000       
J-41            	5752282.970       	3654166.000       
J-410           	5708282.390       	3681402.000       
J-411           	5708111.950       	3681123.000       
J-412           	5786405.660       	3662600.000       
J-413           	5787048.570       	3663567.000       
J-414           	5688895.450       	3668420.000       
J-415           	5689430.180       	3669956.000       
J-416           	5687277.040       	3669084.000       
J-417           	5688578.690       	3669111.000       
J-418           	5686345.900       	3670361.000       
J-419           	5686604.030       	3670693.000       
J-42            	5751702.750       	3654070.000       
J-420           	5722728.150       	3679509.000       
J-422           	5795642.200       	3645091.190       
J-423           	5796808.550       	3643150.000       
J-424           	5732288.420       	3682491.000       
J-425           	5733083.550       	3684234.000       
J-426           	5699984.540       	3641505.000       
J-428           	5703480.990       	3642061.000       
J-429           	5707336.560       	3641404.000       
J-43            	5733927.800       	3681445.000       
J-430           	5692650.030       	3674642.000       
J-431           	5692297.110       	3675423.000       
J-432           	5693161.900       	3674734.000       
J-433           	5693167.220       	3676945.000       
J-434           	5704138.960       	3679071.000       
J-435           	5705344.720       	3680863.000       
J-436           	5699726.340       	3678435.000       
J-437           	5699431.770       	3679167.000       
J-438           	5704398.830       	3680307.000       
J-439           	5704116.070       	3680548.000       
J-44            	5734308.210       	3681386.000       
J-442           	5790791.740       	3654122.000       
J-443           	5791303.700       	3654817.000       
J-444           	5784630.380       	3663565.000       
J-445           	5783831.330       	3661456.000       
J-446           	5790598.590       	3654146.000       
J-447           	5792258.960       	3653507.000       
J-448           	5783818.870       	3661432.000       
J-449           	5782901.570       	3660695.000       
J-45            	5736157.860       	3679082.000       
J-450           	5786524.740       	3657546.000       
J-451           	5787265.780       	3658032.000       
J-452           	5788583.730       	3655358.000       
J-453           	5788934.930       	3655677.000       
J-454           	5787648.980       	3661618.000       
J-456           	5746839.570       	3616668.000       
J-457           	5755946.270       	3623775.610       
J-458           	5733502.630       	3657946.000       
J-459           	5734719.080       	3658903.000       
J-46            	5736220.520       	3678641.000       
J-461           	5736855.690       	3670527.000       
J-462           	5738174.740       	3670956.000       
J-463           	5736289.140       	3622425.000       
J-464           	5736638.450       	3624285.000       
J-465           	5716676.590       	3654906.000       
J-466           	5716635.750       	3654853.000       
J-469           	5744757.560       	3673933.000       
J-47            	5697754.740       	3676449.000       
J-470           	5723737.000       	3621062.220       
J-472           	5711191.330       	3653964.000       
J-473           	5710463.290       	3651411.000       
J-474           	5711995.670       	3649154.000       
J-476           	5783786.150       	3665095.000       
J-478           	5783951.910       	3664931.000       
J-479           	5785563.140       	3665603.000       
J-48            	5715284.000       	3618021.000       
J-480           	5785563.830       	3665604.000       
J-481           	5783827.620       	3661455.000       
J-483           	5714116.780       	3616987.770       
J-486           	5759241.530       	3661837.000       
J-487           	5712483.920       	3660299.000       
J-488           	5711369.460       	3660032.000       
J-489           	5712482.960       	3660282.000       
J-49            	5720839.580       	3618817.000       
J-490           	5711371.140       	3660034.000       
J-491           	5708780.820       	3656269.000       
J-492           	5708786.380       	3656268.000       
J-493           	5723106.480       	3666005.000       
J-494           	5723088.530       	3665723.000       
J-496           	5722867.760       	3666743.000       
J-497           	5765676.500       	3655507.000       
J-498           	5759206.330       	3660822.000       
J-5             	5700159.810       	3637875.000       
J-50            	5721363.850       	3620595.000       
J-508           	5756726.500       	3658265.000       
J-509           	5756671.980       	3658199.000       
J-51            	5721574.480       	3618878.000       
J-510           	5726073.780       	3620799.000       
J-512           	5730401.080       	3619595.000       
J-513           	5728907.520       	3617336.000       
J-514           	5748862.980       	3604526.000       
J-515           	5707772.510       	3666135.000       
J-516           	5707884.950       	3665133.000       
J-517           	5707651.080       	3664953.000       
J-518           	5689575.250       	3648021.000       
J-519           	5690310.470       	3648393.000       
J-52            	5721698.540       	3618822.000       
J-520           	5691228.150       	3654167.000       
J-521           	5689250.960       	3654337.000       
J-522           	5695005.540       	3658204.000       
J-524           	5696551.850       	3658939.000       
J-525           	5697543.350       	3657884.000       
J-526           	5701250.090       	3678027.000       
J-527           	5701193.520       	3678015.000       
J-528           	5721471.690       	3618864.000       
J-529           	5721726.950       	3617773.000       
J-53            	5775576.950       	3658676.000       
J-530           	5774555.460       	3664438.000       
J-531           	5773777.080       	3664055.000       
J-532           	5773922.540       	3664250.000       
J-534           	5773780.340       	3664056.000       
J-535           	5773584.480       	3664062.000       
J-536           	5773452.040       	3664001.000       
J-54            	5692072.580       	3670209.000       
J-540           	5722111.540       	3635569.000       
J-541           	5759650.420       	3664054.000       
J-545           	5730483.890       	3681476.000       
J-546           	5730480.200       	3681480.000       
J-547           	5698773.200       	3647104.000       
J-549           	5697468.270       	3647230.000       
J-55            	5707047.460       	3658561.000       
J-550           	5696404.970       	3647987.000       
J-551           	5696557.200       	3648249.000       
J-553           	5694761.580       	3648846.000       
J-554           	5694671.630       	3649226.000       
J-555           	5694351.490       	3649568.000       
J-556           	5714551.010       	3654928.000       
J-557           	5714978.780       	3654985.000       
J-559           	5712598.920       	3656442.000       
J-56            	5697663.260       	3657479.000       
J-560           	5712101.250       	3655671.000       
J-562           	5739327.770       	3690314.000       
J-563           	5738417.980       	3688420.000       
J-564           	5738564.340       	3687942.000       
J-565           	5739669.740       	3689850.000       
J-567           	5755951.820       	3635601.000       
J-569           	5756548.600       	3635317.000       
J-57            	5723395.000       	3645237.000       
J-570           	5756733.510       	3635012.000       
J-571           	5756847.750       	3634848.000       
J-572           	5757207.780       	3633838.000       
J-574           	5756435.550       	3634845.000       
J-575           	5756580.940       	3634621.000       
J-576           	5757527.060       	3635717.000       
J-577           	5758588.850       	3636381.000       
J-578           	5757305.290       	3636483.000       
J-58            	5723679.280       	3643415.000       
J-582           	5764309.940       	3644155.000       
J-585           	5760874.580       	3635684.000       
J-586           	5762571.200       	3634281.000       
J-587           	5761945.770       	3634318.000       
J-588           	5750417.720       	3644022.000       
J-589           	5750741.250       	3642917.000       
J-59            	5697473.420       	3647162.000       
J-590           	5750415.040       	3644030.000       
J-591           	5750493.950       	3644290.000       
J-592           	5751043.660       	3644449.000       
J-594           	5752849.830       	3643889.000       
J-596           	5750675.680       	3641985.000       
J-598           	5749736.600       	3640247.000       
J-6             	5751913.540       	3688285.000       
J-60            	5689221.540       	3668257.000       
J-600           	5761735.730       	3665153.000       
J-601           	5690942.700       	3644834.000       
J-602           	5691381.460       	3646231.000       
J-603           	5691378.290       	3646233.000       
J-606           	5757339.960       	3658663.000       
J-609           	5757594.060       	3658922.000       
J-61            	5782405.550       	3676197.000       
J-610           	5758029.080       	3659458.000       
J-611           	5758028.270       	3659459.000       
J-612           	5756571.610       	3706467.000       
J-613           	5755062.060       	3704709.000       
J-615           	5753928.930       	3704505.000       
J-617           	5696617.460       	3675578.000       
J-618           	5720878.730       	3633792.000       
J-619           	5721857.360       	3632071.000       
J-62            	5782604.450       	3673873.000       
J-620           	5745397.310       	3664630.000       
J-621           	5746874.300       	3645429.380       
J-622           	5747559.620       	3645606.000       
J-623           	5746594.300       	3645361.830       
J-625           	5746509.130       	3645177.770       
J-626           	5746499.340       	3645150.360       
J-628           	5744477.280       	3641971.000       
J-629           	5744401.240       	3638507.000       
J-63            	5718722.360       	3649736.000       
J-630           	5745861.820       	3636207.000       
J-631           	5746090.090       	3635358.000       
J-633           	5746102.980       	3635349.000       
J-635           	5762933.260       	3709351.000       
J-637           	5759046.520       	3707531.000       
J-638           	5758205.500       	3707348.000       
J-64            	5720832.970       	3648557.000       
J-642           	5701802.570       	3632065.000       
J-643           	5701810.500       	3632061.000       
J-647           	5707366.550       	3665983.000       
J-65            	5781583.520       	3668491.000       
J-650           	5703074.190       	3661106.000       
J-651           	5704611.050       	3662213.000       
J-653           	5753128.250       	3627645.000       
J-655           	5738430.040       	3677482.000       
J-656           	5741171.670       	3678000.000       
J-657           	5741174.250       	3677999.000       
J-658           	5698772.670       	3647080.000       
J-659           	5699060.740       	3647300.000       
J-66            	5779302.650       	3667744.000       
J-660           	5701498.610       	3646018.000       
J-661           	5703138.430       	3646808.000       
J-664           	5703442.080       	3642128.000       
J-665           	5703269.930       	3641675.000       
J-666           	5692562.750       	3651043.000       
J-667           	5692365.150       	3651199.000       
J-669           	5691246.980       	3651591.000       
J-67            	5774689.340       	3664668.000       
J-672           	5696561.280       	3675301.000       
J-673           	5697753.760       	3676444.000       
J-675           	5722546.510       	3679653.000       
J-677           	5723582.380       	3679786.000       
J-678           	5724487.630       	3679688.000       
J-679           	5725711.640       	3678895.000       
J-68            	5774955.240       	3664801.000       
J-680           	5726538.250       	3679243.000       
J-681           	5767056.910       	3674282.000       
J-682           	5767134.350       	3673451.000       
J-684           	5776024.360       	3679137.000       
J-685           	5687663.410       	3664031.000       
J-687           	5687688.610       	3663981.000       
J-688           	5687692.180       	3663977.000       
J-69            	5721801.840       	3648168.000       
J-690           	5701752.550       	3676787.000       
J-691           	5701743.210       	3676788.000       
J-692           	5703545.970       	3676709.000       
J-693           	5703549.020       	3676708.000       
J-694           	5703883.820       	3676421.000       
J-695           	5703894.380       	3676429.000       
J-696           	5704138.840       	3679056.000       
J-698           	5705392.360       	3682181.000       
J-7             	5721484.570       	3679063.000       
J-70            	5699553.600       	3669359.000       
J-702           	5748419.880       	3641131.000       
J-703           	5749671.310       	3639635.000       
J-704           	5749954.270       	3638177.000       
J-705           	5750203.240       	3637575.000       
J-708           	5751789.580       	3636470.000       
J-71            	5777769.390       	3653832.000       
J-710           	5705940.300       	3668028.000       
J-711           	5705144.650       	3668792.000       
J-712           	5705944.540       	3668030.000       
J-713           	5708436.910       	3666017.000       
J-715           	5708728.680       	3666131.390       
J-716           	5708665.170       	3665915.460       
J-717           	5708418.290       	3665715.000       
J-719           	5775593.040       	3634862.000       
J-72            	5696524.560       	3647978.000       
J-722           	5774333.540       	3640176.000       
J-723           	5774941.980       	3640109.290       
J-725           	5774874.220       	3640117.000       
J-728           	5722782.120       	3666488.000       
J-729           	5723898.670       	3667180.000       
J-73            	5691074.720       	3656539.000       
J-730           	5722921.350       	3666726.000       
J-732           	5722958.060       	3611968.000       
J-733           	5723699.500       	3612844.000       
J-734           	5725618.700       	3610998.000       
J-735           	5689329.460       	3666442.000       
J-737           	5689228.890       	3668300.000       
J-74            	5775099.970       	3665305.000       
J-740           	5689229.750       	3668337.000       
J-742           	5698221.690       	3669880.000       
J-743           	5698221.960       	3669882.000       
J-744           	5686074.860       	3670450.000       
J-745           	5686081.770       	3670446.000       
J-746           	5745027.650       	3623858.000       
J-747           	5745736.210       	3624190.000       
J-749           	5749138.410       	3625711.000       
J-75            	5703977.150       	3655078.000       
J-751           	5774718.340       	3651240.000       
J-752           	5774644.000       	3649784.000       
J-755           	5774644.150       	3649779.000       
J-756           	5774776.180       	3643754.000       
J-757           	5716380.720       	3681569.000       
J-758           	5719967.900       	3679891.000       
J-759           	5734014.520       	3685925.000       
J-76            	5744058.540       	3664442.000       
J-760           	5730265.520       	3684517.000       
J-761           	5731175.800       	3685714.000       
J-763           	5755735.310       	3657950.000       
J-765           	5761298.240       	3635703.000       
J-766           	5761381.380       	3635599.000       
J-77            	5773775.900       	3664055.000       
J-770           	5761485.350       	3635637.000       
J-771           	5761783.390       	3635847.000       
J-772           	5761307.040       	3635701.000       
J-775           	5762138.120       	3635007.000       
J-777           	5723628.050       	3643109.000       
J-778           	5724405.290       	3640947.000       
J-779           	5766893.980       	3674392.000       
J-78            	5772890.330       	3663771.000       
J-781           	5708459.120       	3657176.000       
J-783           	5744198.490       	3675339.000       
J-784           	5744196.650       	3675335.000       
J-785           	5744189.250       	3675330.000       
J-786           	5743925.670       	3673648.000       
J-787           	5714312.830       	3617015.120       
J-79            	5761508.380       	3656669.000       
J-791           	5778993.650       	3689195.000       
J-792           	5779277.700       	3689087.000       
J-796           	5783909.430       	3685348.000       
J-797           	5788840.110       	3681835.000       
J-799           	5782135.370       	3677933.000       
J-8             	5720397.410       	3679902.000       
J-80            	5761757.460       	3655875.000       
J-801           	5782138.540       	3677934.000       
J-802           	5779717.830       	3677118.000       
J-804           	5782370.850       	3675946.000       
J-805           	5780603.960       	3672002.000       
J-806           	5780609.870       	3671983.000       
J-807           	5708432.590       	3666014.000       
J-808           	5708425.730       	3666000.000       
J-809           	5706577.630       	3665722.000       
J-81            	5708484.000       	3657049.000       
J-810           	5707308.830       	3665961.000       
J-811           	5706558.310       	3665706.000       
J-812           	5706548.750       	3665699.000       
J-813           	5767188.550       	3637235.000       
J-815           	5768422.730       	3638223.000       
J-816           	5770069.290       	3638446.000       
J-817           	5768394.300       	3638210.000       
J-818           	5768395.240       	3638206.000       
J-819           	5770509.250       	3638257.000       
J-82            	5711512.800       	3659574.000       
J-820           	5771155.330       	3638172.000       
J-821           	5770060.500       	3638404.000       
J-822           	5770407.890       	3638268.000       
J-823           	5770226.560       	3638446.000       
J-824           	5770442.900       	3638975.000       
J-825           	5770279.880       	3638420.000       
J-826           	5772406.140       	3638544.000       
J-827           	5770276.520       	3638428.000       
J-828           	5770275.700       	3638425.000       
J-83            	5701807.580       	3632084.000       
J-830           	5773369.000       	3638611.000       
J-833           	5782092.600       	3649703.000       
J-834           	5781729.500       	3648718.000       
J-836           	5782219.250       	3647657.000       
J-837           	5782403.790       	3647355.000       
J-839           	5780540.850       	3643536.000       
J-84            	5702275.010       	3632552.000       
J-840           	5784226.390       	3642075.000       
J-841           	5783360.920       	3642212.000       
J-842           	5782882.480       	3650931.000       
J-844           	5790369.550       	3646795.000       
J-845           	5790386.170       	3646797.000       
J-846           	5791396.240       	3647290.000       
J-847           	5788582.060       	3655356.000       
J-85            	5703559.000       	3633859.000       
J-850           	5790032.430       	3654286.000       
J-851           	5790594.720       	3654147.000       
J-852           	5775082.450       	3659698.000       
J-855           	5774650.200       	3639262.000       
J-857           	5774827.300       	3637795.000       
J-858           	5774215.740       	3638834.000       
J-859           	5774212.200       	3638281.000       
J-86            	5762706.730       	3648739.000       
J-861           	5790597.670       	3654144.000       
J-862           	5792255.170       	3653512.000       
J-863           	5781722.200       	3668610.000       
J-867           	5753182.000       	3660006.000       
J-868           	5751254.040       	3662978.000       
J-869           	5749684.160       	3663092.000       
J-87            	5759972.040       	3644922.000       
J-870           	5756048.470       	3708476.000       
J-871           	5745276.490       	3697401.000       
J-873           	5750660.350       	3636506.000       
J-874           	5751153.420       	3636640.000       
J-878           	5751441.480       	3636022.000       
J-88            	5705933.030       	3631256.630       
J-880           	5752944.220       	3637649.000       
J-886           	5760583.490       	3667488.000       
J-889           	5696671.960       	3676166.000       
J-89            	5761541.770       	3635596.000       
J-890           	5698733.390       	3677693.000       
J-892           	5698766.860       	3677669.000       
J-893           	5699067.030       	3677822.000       
J-894           	5699720.510       	3678417.000       
J-895           	5699726.360       	3678436.000       
J-896           	5738587.190       	3688949.000       
J-897           	5738412.460       	3688427.000       
J-898           	5738983.290       	3687719.000       
J-899           	5739392.800       	3687731.000       
J-9             	5701757.820       	3612525.000       
J-90            	5730046.000       	3655801.000       
J-900           	5738977.600       	3687717.000       
J-901           	5738646.310       	3687618.000       
J-905           	5692368.170       	3673180.000       
J-906           	5692991.170       	3674731.000       
J-907           	5692991.210       	3674729.000       
J-908           	5695205.840       	3675729.000       
J-909           	5695204.820       	3675730.000       
J-91            	5731881.040       	3656619.000       
J-911           	5697124.770       	3676723.000       
J-912           	5697126.840       	3676723.000       
J-914           	5732287.890       	3682492.000       
J-916           	5699354.950       	3670744.000       
J-917           	5699587.300       	3672237.000       
J-918           	5699457.260       	3671440.000       
J-919           	5699353.780       	3670742.000       
J-92            	5752441.290       	3661579.000       
J-920           	5699416.910       	3671160.000       
J-921           	5699415.500       	3671158.000       
J-922           	5699437.680       	3671442.000       
J-923           	5795399.810       	3645306.000       
J-925           	5795898.130       	3645458.000       
J-928           	5799260.130       	3640433.000       
J-93            	5753529.110       	3661291.000       
J-930           	5790975.760       	3639270.000       
J-931           	5790259.380       	3643611.000       
J-932           	5790453.710       	3642969.000       
J-933           	5791953.260       	3638753.000       
J-934           	5794157.300       	3649124.000       
J-935           	5744890.140       	3630556.000       
J-936           	5746751.090       	3630403.000       
J-937           	5747838.420       	3630428.000       
J-939           	5747614.830       	3631781.000       
J-94            	5754409.400       	3661114.000       
J-940           	5747969.340       	3630330.000       
J-941           	5721667.040       	3618987.000       
J-942           	5782956.640       	3685023.000       
J-943           	5698083.070       	3671774.000       
J-944           	5698083.180       	3671774.000       
J-945           	5698248.250       	3669876.000       
J-946           	5698084.740       	3671775.000       
J-95            	5755621.480       	3635624.000       
J-951           	5745171.170       	3634232.000       
J-953           	5746731.370       	3645388.260       
J-954           	5749101.290       	3645205.000       
J-955           	5749344.990       	3645049.000       
J-957           	5749752.250       	3644770.000       
J-958           	5781605.340       	3668115.000       
J-959           	5781590.700       	3668009.000       
J-96            	5770582.310       	3660540.000       
J-960           	5781678.690       	3668146.000       
J-961           	5781749.770       	3667671.000       
J-962           	5782301.910       	3667895.000       
J-963           	5782303.340       	3667893.000       
J-964           	5782298.180       	3666555.000       
J-965           	5787051.150       	3663570.000       
J-967           	5722135.420       	3615495.000       
J-97            	5755691.560       	3658118.000       
J-970           	5732069.390       	3680380.000       
J-971           	5731899.890       	3679571.000       
J-974           	5730830.450       	3677466.000       
J-977           	5728624.170       	3674033.000       
J-978           	5728924.500       	3674256.000       
J-979           	5728979.040       	3652070.000       
J-98            	5755456.680       	3658154.000       
J-980           	5728940.160       	3652091.000       
J-981           	5728241.560       	3647587.000       
J-983           	5728015.970       	3646214.000       
J-984           	5728595.800       	3645449.000       
J-985           	5726294.930       	3634087.000       
J-986           	5730444.290       	3638163.000       
J-987           	5725904.970       	3632758.000       
J-989           	5743595.770       	3623370.000       
J-99            	5756717.520       	3635007.000       
J-991           	5738823.750       	3624572.000       
J-993           	5730407.290       	3619603.000       
J-994           	5731473.040       	3620052.000       
J-995           	5733349.810       	3619326.000       
J-996           	5733354.690       	3619321.000       
J-997           	5733851.170       	3619119.000       
J-998           	5736278.280       	3621967.000       
J-999           	5736193.590       	3621990.000       
O-Kelly_Fork    	5706177.780       	3631869.000       
I-Kelly_Fork_1  	5712755.090       	3631992.000       
I-Knob_Botttom  	5722663.500       	3681500.000       
O-Ogden_Vest    	5722780.010       	3666492.000       
I-Output_Pump   	5757236.800       	3658819.000       
O-Perkins_Madden	5726627.200       	3640339.000       
I-Possum_trot   	5737508.750       	3671002.000       
O-Rock_Forka    	5762719.960       	3708917.000       
I-Short_Fork    	5752250.170       	3649656.000       
I-Slone_FK      	5755706.240       	3658103.000       
O-Slone_Fork_1  	5753212.190       	3660083.870       
I-Trace_Caney   	5756502.370       	3651270.000       
I-Wiley_Fork    	5744575.050       	3675348.000       
I-Wilson_Branch 	5760255.370       	3654032.000       
I-Wolfepen_Creek	5746838.270       	3616650.000       
O-Yellow_Creek  	5705613.670       	3632394.000       
I-1410_Pump     	5758059.150       	3623244.000       
I-AV-1          	5723699.590       	3612848.000       
O-AV-10         	5746850.700       	3616629.000       
O-AV-100        	5744998.850       	3646465.000       
O-AV-102        	5744732.750       	3630501.000       
O-AV-103        	5754830.240       	3655751.000       
O-AV-104        	5755238.740       	3656873.000       
O-AV-105        	5755691.080       	3657982.000       
O-AV-106        	5755691.190       	3657986.000       
O-AV-107        	5752443.830       	3661572.000       
O-AV-108        	5749139.380       	3625707.000       
O-AV-109        	5743728.130       	3664404.000       
O-AV-11         	5734016.900       	3685934.000       
O-AV-110        	5756252.240       	3658236.000       
O-AV-111        	5756987.810       	3658414.000       
O-AV-112        	5690349.860       	3648370.000       
O-AV-113        	5762209.290       	3634916.000       
O-AV-114        	5757130.300       	3658480.000       
O-AV-115        	5750415.180       	3644030.000       
O-AV-116        	5757122.860       	3658480.000       
O-AV-117        	5757123.780       	3658477.000       
O-AV-118        	5757121.520       	3658477.000       
O-AV-119        	5757249.660       	3658607.000       
O-AV-12         	5734133.090       	3686114.000       
O-AV-120        	5757263.420       	3658681.000       
O-AV-121        	5751967.860       	3625571.000       
O-AV-122        	5757258.750       	3658676.000       
O-AV-123        	5757339.990       	3658663.000       
O-AV-124        	5762589.930       	3634525.000       
O-AV-125        	5757333.620       	3658653.000       
O-AV-126        	5757792.650       	3659214.000       
O-AV-127        	5745172.410       	3634236.000       
O-AV-128        	5758029.130       	3659458.000       
O-AV-129        	5758026.730       	3659461.000       
O-AV-13         	5761545.360       	3640356.000       
O-AV-130        	5758063.630       	3659492.000       
O-AV-131        	5757393.550       	3658111.000       
O-AV-132        	5757469.610       	3657901.840       
O-AV-133        	5757435.800       	3657954.000       
O-AV-134        	5756282.630       	3623628.750       
O-AV-135        	5762588.330       	3634523.000       
O-AV-136        	5758809.480       	3662452.000       
O-AV-137        	5759025.020       	3662121.000       
O-AV-138        	5758883.510       	3663300.000       
O-AV-139        	5698330.160       	3657277.000       
O-AV-14         	5735112.790       	3687358.000       
O-AV-140        	5746093.850       	3635353.000       
O-AV-141        	5759068.780       	3663530.000       
O-AV-142        	5759068.090       	3663520.000       
O-AV-143        	5759650.590       	3664054.000       
O-AV-144        	5759644.880       	3664055.000       
O-AV-145        	5760057.060       	3664429.000       
O-AV-147        	5761734.790       	3665143.000       
O-AV-148        	5761740.590       	3665161.000       
O-AV-149        	5757969.170       	3622894.440       
O-AV-15         	5738336.340       	3689778.000       
O-AV-150        	5761734.330       	3665158.000       
O-AV-151        	5761998.510       	3659880.000       
O-AV-152        	5746102.940       	3635351.000       
O-AV-153        	5761756.610       	3655877.000       
O-AV-154        	5762572.660       	3667271.000       
O-AV-155        	5762769.670       	3667590.000       
O-AV-156        	5762798.750       	3667573.000       
O-AV-157        	5690785.320       	3647921.000       
O-AV-158        	5763630.710       	3669312.000       
O-AV-159        	5767050.790       	3674275.000       
O-AV-16         	5733354.450       	3619321.000       
O-AV-160        	5767026.920       	3674315.000       
O-AV-161        	5779310.670       	3689082.000       
O-AV-162        	5758040.230       	3623396.610       
O-AV-163        	5766956.830       	3674835.000       
O-AV-164        	5745850.930       	3636178.000       
O-AV-165        	5782570.870       	3688363.000       
O-AV-166        	5782975.530       	3687960.000       
O-AV-167        	5783909.040       	3685342.000       
O-AV-168        	5764368.860       	3634129.000       
O-AV-169        	5784252.000       	3685471.000       
O-AV-17         	5698769.030       	3647078.000       
O-AV-170        	5783425.840       	3685278.000       
O-AV-171        	5782131.270       	3677934.000       
O-AV-172        	5782139.520       	3677934.000       
O-AV-173        	5782136.320       	3677930.000       
O-AV-174        	5781865.750       	3677088.000       
O-AV-175        	5758030.760       	3623472.410       
O-AV-176        	5745844.500       	3643025.000       
O-AV-177        	5782406.960       	3676193.000       
O-AV-178        	5780605.860       	3671980.000       
O-AV-179        	5761846.060       	3636359.000       
O-AV-18         	5741519.320       	3690418.430       
O-AV-180        	5781860.350       	3671241.000       
O-AV-181        	5781867.730       	3671208.000       
O-AV-182        	5780738.490       	3670493.000       
O-AV-183        	5781725.680       	3668587.000       
O-AV-184        	5781745.340       	3668615.000       
O-AV-185        	5781732.770       	3668597.000       
O-AV-186        	5781739.130       	3668604.000       
O-AV-187        	5781609.010       	3668116.000       
O-AV-188        	5746514.020       	3645201.270       
O-AV-189        	5722919.940       	3611920.000       
O-AV-19         	5741126.110       	3690096.280       
O-AV-190        	5745281.600       	3697382.000       
O-AV-191        	5746655.020       	3609630.000       
O-AV-192        	5786526.940       	3657546.000       
O-AV-193        	5782300.380       	3666552.000       
O-AV-194        	5783787.200       	3665091.000       
O-AV-195        	5783955.570       	3664935.000       
O-AV-196        	5784632.060       	3663563.000       
O-AV-197        	5783817.860       	3661431.000       
O-AV-198        	5784818.450       	3659303.000       
O-AV-199        	5784804.050       	3659309.000       
O-AV-2          	5761545.060       	3640354.000       
O-AV-20         	5741457.730       	3689617.800       
O-AV-200        	5746534.520       	3645253.000       
O-AV-201        	5745279.590       	3697409.000       
O-AV-202        	5786572.740       	3657499.000       
O-AV-203        	5788583.080       	3655351.000       
O-AV-204        	5790590.700       	3654147.000       
O-AV-205        	5790596.530       	3654151.000       
O-AV-206        	5786406.320       	3662602.000       
O-AV-207        	5787108.740       	3662143.000       
O-AV-208        	5790284.320       	3660308.000       
O-AV-209        	5779269.480       	3667468.000       
O-AV-21         	5740827.650       	3690006.270       
O-AV-210        	5779147.910       	3667625.000       
O-AV-211        	5722453.840       	3619989.650       
O-AV-212        	5745277.350       	3697409.000       
O-AV-213        	5746772.480       	3645394.140       
O-AV-214        	5775570.480       	3666667.000       
O-AV-215        	5774945.350       	3664795.000       
O-AV-216        	5773774.530       	3664056.000       
O-AV-217        	5773775.100       	3664058.000       
O-AV-218        	5772770.900       	3663521.000       
O-AV-219        	5772767.550       	3663513.000       
O-AV-220        	5775272.850       	3665077.000       
O-AV-221        	5778147.740       	3657234.000       
O-AV-222        	5722430.150       	3620326.900       
O-AV-224        	5714148.700       	3616887.460       
O-AV-225        	5774719.670       	3651237.000       
O-AV-226        	5747556.960       	3645620.000       
O-AV-227        	5774809.770       	3643742.000       
O-AV-228        	5774775.890       	3643754.000       
O-AV-229        	5774781.340       	3643753.000       
O-AV-23         	5692371.600       	3673183.000       
O-AV-230        	5774802.080       	3643744.000       
O-AV-231        	5775632.720       	3642703.000       
O-AV-232        	5774874.330       	3640117.000       
O-AV-233        	5774909.010       	3640063.760       
O-AV-234        	5774338.230       	3640177.000       
O-AV-235        	5721192.810       	3618993.650       
O-AV-236        	5773456.830       	3638630.000       
O-AV-237        	5773361.350       	3638608.000       
O-AV-238        	5748035.470       	3645626.000       
O-AV-239        	5759025.870       	3645778.000       
O-AV-24         	5760862.450       	3635685.000       
O-AV-240        	5773596.870       	3638596.000       
O-AV-241        	5774258.110       	3638825.000       
O-AV-242        	5774232.680       	3638787.000       
O-AV-243        	5774235.640       	3638787.000       
O-AV-244        	5774834.510       	3637788.000       
O-AV-245        	5775365.260       	3634847.000       
O-AV-246        	5721159.290       	3620424.000       
O-AV-247        	5777941.180       	3654198.000       
O-AV-248        	5777938.570       	3654204.000       
O-AV-249        	5777762.770       	3653832.000       
O-AV-25         	5746819.190       	3616635.000       
O-AV-250        	5749102.720       	3645207.000       
O-AV-251        	5782878.620       	3650917.000       
O-AV-252        	5748658.280       	3653354.000       
O-AV-253        	5782846.020       	3650934.000       
O-AV-254        	5782089.450       	3649604.000       
O-AV-255        	5781727.440       	3648714.000       
O-AV-256        	5782408.010       	3647345.000       
O-AV-257        	5721719.280       	3617787.000       
O-AV-258        	5782383.520       	3647353.000       
O-AV-259        	5783366.300       	3642206.000       
O-AV-26         	5693163.280       	3674737.000       
O-AV-260        	5789143.850       	3645848.000       
O-AV-261        	5790464.330       	3642955.000       
O-AV-262        	5691263.880       	3656840.000       
O-AV-263        	5749339.390       	3645053.000       
O-AV-264        	5791406.450       	3647295.000       
O-AV-265        	5792949.380       	3646386.000       
O-AV-266        	5723296.290       	3620778.960       
O-AV-267        	5795386.470       	3645312.000       
O-AV-268        	5723693.840       	3612836.000       
O-AV-269        	5795382.140       	3645319.000       
O-AV-27         	5695205.430       	3675734.000       
O-AV-270        	5795408.410       	3645305.000       
O-AV-271        	5795714.220       	3645135.000       
O-AV-272        	5796808.950       	3643145.000       
O-AV-273        	5798316.280       	3641919.000       
O-AV-274        	5709159.770       	3663662.000       
O-AV-275        	5749803.630       	3644801.000       
O-AV-276        	5711213.190       	3665010.000       
O-AV-277        	5763687.660       	3637311.000       
O-AV-278        	5763683.270       	3637307.000       
O-AV-279        	5735344.130       	3621463.000       
O-AV-28         	5696671.440       	3676163.000       
O-AV-280        	5723071.040       	3621128.930       
O-AV-281        	5763682.530       	3637308.000       
O-AV-282        	5763404.210       	3637340.000       
O-AV-283        	5763584.850       	3637350.000       
O-AV-284        	5765635.970       	3636631.000       
O-AV-286        	5767931.630       	3635433.000       
O-AV-287        	5750740.450       	3642920.000       
O-AV-288        	5767190.090       	3637235.000       
O-AV-289        	5772410.840       	3638542.000       
O-AV-29         	5698769.190       	3647105.000       
O-AV-290        	5722956.000       	3611941.000       
O-AV-291        	5723573.940       	3620841.610       
O-AV-292        	5729006.400       	3681427.000       
O-AV-293        	5722721.170       	3622562.000       
O-AV-294        	5722667.320       	3610232.000       
O-AV-295        	5728123.290       	3623995.000       
O-AV-296        	5722240.860       	3626538.000       
O-AV-297        	5722216.280       	3626561.000       
O-AV-298        	5720909.820       	3628936.000       
O-AV-3          	5728626.340       	3674035.000       
O-AV-300        	5720914.950       	3628956.000       
O-AV-301        	5737141.900       	3624416.000       
O-AV-302        	5720913.520       	3628933.000       
O-AV-303        	5721861.080       	3632070.000       
O-AV-304        	5721860.030       	3632083.000       
O-AV-305        	5720878.630       	3633784.000       
O-AV-306        	5722087.500       	3635629.000       
O-AV-307        	5723816.960       	3608364.000       
O-AV-308        	5722083.880       	3635622.000       
O-AV-309        	5722052.440       	3635591.000       
O-AV-310        	5721328.340       	3638561.000       
O-AV-312        	5746581.330       	3699205.000       
O-AV-313        	5721514.940       	3639995.000       
O-AV-314        	5723628.460       	3643099.000       
O-AV-315        	5723629.640       	3643118.000       
O-AV-316        	5723695.640       	3643337.000       
O-AV-317        	5724181.880       	3642279.000       
O-AV-318        	5724173.670       	3642318.000       
O-AV-319        	5723392.530       	3645243.000       
O-AV-320        	5726072.700       	3620794.000       
O-AV-321        	5720832.190       	3648554.000       
O-AV-322        	5717529.200       	3649353.000       
O-AV-323        	5755211.840       	3704676.000       
O-AV-325        	5718555.190       	3650154.000       
O-AV-326        	5718718.410       	3649744.000       
O-AV-327        	5716290.510       	3654635.000       
O-AV-328        	5716383.070       	3654655.000       
O-AV-329        	5716471.880       	3654727.000       
O-AV-330        	5716475.220       	3654729.000       
O-AV-331        	5714860.940       	3655045.000       
O-AV-332        	5714860.850       	3655043.000       
O-AV-333        	5730402.600       	3619597.000       
O-AV-335        	5753914.680       	3704519.000       
O-AV-336        	5714974.150       	3654982.000       
O-AV-337        	5750646.830       	3641194.000       
O-AV-338        	5712590.340       	3656447.000       
O-AV-339        	5712605.290       	3656428.000       
O-AV-34         	5698773.030       	3677668.000       
O-AV-340        	5712167.580       	3648828.000       
O-AV-341        	5712153.750       	3648822.000       
O-AV-342        	5711296.020       	3646632.000       
O-AV-343        	5712336.960       	3645659.000       
O-AV-344        	5708524.070       	3656233.000       
O-AV-345        	5709357.300       	3655383.000       
O-AV-346        	5754902.870       	3704674.000       
O-AV-347        	5708460.380       	3657177.000       
O-AV-348        	5708460.210       	3657174.000       
O-AV-35         	5690332.000       	3648359.000       
O-AV-350        	5733356.810       	3619331.000       
O-AV-351        	5711512.120       	3659571.000       
O-AV-353        	5707040.670       	3658632.000       
O-AV-354        	5703686.290       	3655729.000       
O-AV-355        	5703688.820       	3655731.000       
O-AV-356        	5703814.680       	3655515.000       
O-AV-357        	5755407.390       	3704729.000       
O-AV-358        	5703687.630       	3655725.000       
O-AV-359        	5703805.060       	3655506.000       
O-AV-36         	5698735.540       	3677697.000       
O-AV-360        	5703854.560       	3653320.000       
O-AV-361        	5735605.010       	3622098.000       
O-AV-364        	5691261.720       	3656420.000       
O-AV-365        	5749669.480       	3639638.000       
O-AV-366        	5749908.630       	3638084.000       
O-AV-367        	5750657.990       	3636511.000       
O-AV-368        	5755406.130       	3704727.000       
O-AV-369        	5750682.680       	3636512.000       
O-AV-37         	5699726.360       	3678436.000       
O-AV-370        	5748943.870       	3634930.000       
O-AV-371        	5747545.290       	3634167.000       
O-AV-372        	5747546.030       	3634165.000       
O-AV-373        	5747615.900       	3631785.000       
O-AV-374        	5747615.690       	3631785.000       
O-AV-375        	5736296.080       	3621756.000       
O-AV-376        	5691223.430       	3654159.000       
O-AV-377        	5747839.310       	3630470.000       
O-AV-378        	5747836.230       	3630428.000       
O-AV-379        	5755370.330       	3704713.000       
O-AV-38         	5746871.360       	3616435.000       
O-AV-380        	5747971.330       	3630329.000       
O-AV-381        	5749866.170       	3630516.000       
O-AV-382        	5749873.790       	3630517.000       
O-AV-383        	5750933.040       	3630363.000       
O-AV-384        	5750940.200       	3630441.000       
O-AV-385        	5752678.570       	3629687.000       
O-AV-388        	5690852.780       	3651887.000       
O-AV-389        	5736275.140       	3621998.000       
O-AV-39         	5704137.980       	3679058.000       
O-AV-390        	5756832.710       	3706778.000       
O-AV-393        	5751451.950       	3636687.000       
O-AV-394        	5751461.520       	3636682.000       
O-AV-395        	5751464.390       	3636679.000       
O-AV-396        	5752508.330       	3636957.000       
O-AV-398        	5752949.750       	3637652.000       
O-AV-399        	5754688.110       	3639181.000       
O-AV-40         	5704139.870       	3679071.000       
O-AV-400        	5691002.230       	3651793.000       
O-AV-401        	5691366.760       	3646246.000       
O-AV-402        	5755489.400       	3640809.000       
O-AV-403        	5736276.670       	3621964.000       
O-AV-404        	5755494.430       	3640806.000       
O-AV-405        	5756532.630       	3641280.000       
O-AV-407        	5754885.320       	3642103.000       
O-AV-408        	5754150.630       	3635936.000       
O-AV-409        	5755108.050       	3635556.000       
O-AV-41         	5701502.930       	3646004.000       
O-AV-410        	5755065.500       	3635535.000       
O-AV-411        	5754975.330       	3635066.000       
O-AV-412        	5757193.950       	3707068.000       
O-AV-413        	5690249.540       	3649210.000       
O-AV-414        	5754966.900       	3635064.000       
O-AV-416        	5736824.320       	3621715.000       
O-AV-418        	5755955.450       	3635596.000       
O-AV-42         	5705347.820       	3680864.000       
O-AV-420        	5756716.010       	3635003.000       
O-AV-421        	5756846.100       	3634851.000       
O-AV-422        	5757523.120       	3635727.000       
O-AV-423        	5759047.010       	3707533.000       
O-AV-424        	5758593.530       	3636380.000       
O-AV-425        	5738824.790       	3624569.000       
O-AV-427        	5759047.680       	3707529.000       
O-AV-428        	5761664.590       	3707410.000       
O-AV-429        	5750506.560       	3709678.000       
O-AV-430        	5748066.720       	3707933.000       
O-AV-431        	5750595.970       	3710506.000       
O-AV-432        	5689592.600       	3658047.000       
O-AV-433        	5688236.060       	3658576.000       
O-AV-434        	5691381.080       	3646234.000       
O-AV-435        	5689334.190       	3666440.000       
O-AV-436        	5687682.600       	3663996.000       
O-AV-437        	5736527.790       	3624325.000       
O-AV-438        	5687696.210       	3663973.000       
O-AV-439        	5741998.840       	3624960.000       
O-AV-44         	5705395.520       	3682253.000       
O-AV-441        	5689222.310       	3668326.000       
O-AV-442        	5689232.160       	3668333.000       
O-AV-443        	5689226.290       	3668298.000       
O-AV-444        	5687271.340       	3669080.000       
O-AV-445        	5698246.930       	3669876.000       
O-AV-446        	5692361.170       	3651196.000       
O-AV-447        	5698107.780       	3671800.000       
O-AV-448        	5759821.420       	3636256.000       
O-AV-449        	5698084.010       	3671778.000       
O-AV-450        	5743594.190       	3623356.000       
O-AV-451        	5698104.930       	3671789.000       
O-AV-454        	5699586.890       	3672239.000       
O-AV-456        	5699795.230       	3671333.000       
O-AV-457        	5699796.160       	3671330.000       
O-AV-458        	5694344.250       	3649553.000       
O-AV-459        	5760885.290       	3638830.000       
O-AV-461        	5700527.190       	3669450.000       
O-AV-462        	5700622.100       	3669319.000       
O-AV-463        	5743702.750       	3623136.000       
O-AV-464        	5700382.170       	3668776.000       
O-AV-465        	5702269.000       	3667329.000       
O-AV-466        	5707348.860       	3667555.000       
O-AV-467        	5715450.680       	3665955.000       
O-AV-468        	5715454.180       	3665949.000       
O-AV-469        	5715457.550       	3665954.000       
O-AV-47         	5708091.670       	3681760.000       
O-AV-470        	5761189.740       	3639616.000       
O-AV-472        	5715874.320       	3666063.000       
O-AV-473        	5717521.820       	3665907.000       
O-AV-474        	5722767.760       	3666469.000       
O-AV-475        	5722763.630       	3666472.000       
O-AV-476        	5746854.290       	3616632.000       
O-AV-477        	5722773.600       	3666465.000       
O-AV-478        	5722775.910       	3666500.000       
O-AV-479        	5722869.330       	3666742.000       
O-AV-48         	5711493.230       	3681232.000       
O-AV-480        	5724807.390       	3665935.000       
O-AV-49         	5716499.000       	3680333.000       
O-AV-5          	5728619.920       	3674028.000       
O-AV-50         	5738314.220       	3683031.000       
O-AV-51         	5730359.500       	3632193.000       
O-AV-52         	5751901.120       	3688267.000       
O-AV-53         	5736503.280       	3626324.000       
O-AV-54         	5753571.030       	3688598.000       
O-AV-55         	5736828.830       	3675300.000       
O-AV-56         	5737123.720       	3673549.000       
O-AV-58         	5737135.330       	3673543.000       
O-AV-59         	5737477.960       	3672120.000       
O-AV-6          	5732312.010       	3682066.000       
O-AV-60         	5737613.580       	3671860.000       
O-AV-61         	5736063.310       	3670080.000       
O-AV-62         	5722946.080       	3611939.000       
O-AV-63         	5745741.080       	3624190.000       
O-AV-64         	5703506.710       	3642209.000       
O-AV-65         	5735666.720       	3621355.000       
O-AV-66         	5703515.960       	3642207.000       
O-AV-67         	5699851.740       	3641789.000       
O-AV-68         	5761428.920       	3635754.000       
O-AV-69         	5699980.660       	3641537.000       
O-AV-7          	5732314.420       	3682067.000       
O-AV-70         	5699984.110       	3641524.000       
O-AV-71         	5700161.500       	3637874.000       
O-AV-72         	5694424.090       	3632215.000       
O-AV-73         	5747436.360       	3624479.000       
O-AV-74         	5694413.240       	3632231.000       
O-AV-75         	5695830.030       	3630452.000       
O-AV-76         	5701798.670       	3632250.000       
O-AV-77         	5737805.130       	3627871.000       
O-AV-78         	5701802.600       	3632066.000       
O-AV-79         	5761490.090       	3635642.000       
O-AV-8          	5734115.740       	3686095.000       
O-AV-80         	5701803.690       	3632062.000       
O-AV-81         	5701810.670       	3632090.000       
O-AV-82         	5705356.380       	3631961.000       
O-AV-83         	5705439.460       	3631981.000       
O-AV-84         	5747436.830       	3624469.000       
O-AV-85         	5705527.520       	3631936.000       
O-AV-86         	5706198.170       	3631883.000       
O-AV-87         	5712738.270       	3631948.000       
O-AV-88         	5728946.880       	3652051.000       
O-AV-89         	5737832.410       	3627868.000       
O-AV-9          	5734119.840       	3686095.000       
O-AV-90         	5736526.940       	3624330.000       
O-AV-91         	5728947.420       	3652046.000       
O-AV-92         	5728941.940       	3652046.000       
O-AV-93         	5728964.050       	3652067.000       
O-AV-94         	5728510.850       	3650361.000       
O-AV-95         	5728241.680       	3647583.000       
O-AV-96         	5735687.630       	3651084.000       
O-AV-97         	5726506.350       	3636546.000       
O-AV-98         	5735861.300       	3651028.000       
O-AV-99         	5744929.310       	3646426.000       
O-Dry_Creek     	5781730.980       	3668610.000       
O-Elk_Glenn     	5709201.110       	3663677.000       
O-Hollybush     	5761512.980       	3656698.000       
I-HWY_80a       	5733795.230       	3686077.000       
I-Kelly_Fork    	5706177.780       	3631869.000       
O-Kelly_Fork_1  	5712755.090       	3631992.000       
O-Knob_Botttom  	5722663.500       	3681500.000       
I-Ogden_Vest    	5722780.010       	3666492.000       
O-Output_Pump   	5757236.800       	3658819.000       
I-Perkins_Madden	5726627.200       	3640339.000       
O-Possum_trot   	5737508.750       	3671002.000       
I-Rock_Forka    	5762719.960       	3708917.000       
O-Short_Fork    	5752250.170       	3649656.000       
O-Slone_FK      	5755706.240       	3658103.000       
I-Slone_Fork_1  	5752995.240       	3660180.930       
O-Trace_Caney   	5756502.370       	3651270.000       
O-Wiley_Fork    	5744575.050       	3675348.000       
O-Wilson_Branch 	5760255.370       	3654032.000       
O-Wolfepen_Creek	5746838.270       	3616650.000       
I-Yellow_Creek  	5705613.670       	3632394.000       
Surf_SRC        	5722034.470       	3619685.810       
1               	5764976.150       	3625189.760       
2               	5743009.660       	3690234.580       
3               	5742211.240       	3690920.950       
4               	5721572.460       	3638831.980       
5               	5700758.470       	3638293.220       
6               	5723993.330       	3621164.400       
7               	5723408.030       	3621368.370       
8               	5705966.150       	3625451.440       
9               	5708601.660       	3666237.240       
10              	5757517.460       	3657961.650       
11              	5756595.700       	3659214.530       
12              	5746033.340       	3698888.850       
13              	5752441.450       	3660540.600       
14              	5711723.230       	3623227.120       

[VERTICES]
;Link            	X-Coord           	Y-Coord

[LABELS]
;X-Coord             Y-Coord             Label & Anchor Node

[BACKDROP]
  DIMENSIONS  	5680415.590       	3598105.350       	5804919.390       	3715863.650       
 UNITS          	None
 FILE           	
 OFFSET         	0.00            	0.00            

[END]
