[TITLE]


[JUNCTIONS]
;ID              	Elev        	Demand      	Pattern         
 J-1             	910.9295    	5.216       	11              	;
 J-10            	946.8868    	2.978       	11              	;
 J-100           	873.7346    	1.794       	11              	;
 J-101           	913.5342    	2.215       	11              	;
 J-102           	1077.363    	1.364       	11              	;
 J-103           	1070.743    	3.001       	11              	;
 J-104           	911.5759    	4.087       	11              	;
 J-105           	949.6541    	0.962       	11              	;
 J-106           	844.8198    	0.145       	11              	;
 J-107           	911.53      	0.457       	11              	;
 J-108           	878.8645    	6.244       	11              	;
 J-109           	884.2694    	5.242       	11              	;
 J-11            	1284.016    	1.279       	11              	;
 J-110           	894.705     	2.421       	11              	;
 J-111           	793.0397    	2.917       	11              	;
 J-113           	866.5101    	0.939       	11              	;
 J-114           	969.5087    	0           	                	;
 J-115           	868.9144    	0.371       	11              	;
 J-116           	845.4252    	0.089       	11              	;
 J-117           	869.8613    	0.147       	11              	;
 J-118           	864.5       	0           	                	;
 J-119           	831.8525    	1.804       	11              	;
 J-12            	869.4212    	2.757       	11              	;
 J-120           	855.4727    	2.286       	11              	;
 J-121           	865.048     	0.749       	11              	;
 J-122           	889.9908    	2.215       	11              	;
 J-123           	905.8547    	0.803       	11              	;
 J-124           	941.5821    	3.403       	11              	;
 J-125           	858.1315    	1.52        	11              	;
 J-126           	889.3646    	2.034       	11              	;
 J-127           	867.1315    	1.906       	11              	;
 J-128           	842.6745    	0.124       	11              	;
 J-129           	911.0619    	0.271       	11              	;
 J-13            	922.5289    	1.096       	11              	;
 J-130           	856.7444    	1.247       	11              	;
 J-131           	928.6189    	0.541       	11              	;
 J-132           	890.2722    	0.559       	11              	;
 J-133           	871.437     	1.557       	11              	;
 J-134           	872.5357    	5.255       	11              	;
 J-135           	862.8616    	1.263       	11              	;
 J-136           	899.9942    	2.59        	11              	;
 J-137           	897.2423    	3.803       	11              	;
 J-138           	896.0107    	0.643       	11              	;
 J-139           	886.1169    	0.795       	11              	;
 J-14            	975.7794    	0.938       	11              	;
 J-140           	898.5971    	2.791       	11              	;
 J-141           	899.8969    	0.501       	11              	;
 J-142           	895.0644    	1.665       	11              	;
 J-143           	884.2805    	4.014       	11              	;
 J-144           	837.9       	0.304       	11              	;
 J-145           	1475.718    	2.139       	11              	;
 J-146           	850.5697    	0.4         	11              	;
 J-147           	808.6201    	1.972       	11              	;
 J-148           	829.0306    	0.869       	11              	;
 J-149           	850.6763    	2.994       	11              	;
 J-15            	873.707     	1.41        	11              	;
 J-150           	873.834     	3.706       	11              	;
 J-151           	902.9547    	0.811       	11              	;
 J-152           	1010.813    	1.628       	11              	;
 J-153           	1009.462    	2.737       	11              	;
 J-154           	1037.944    	5.293       	11              	;
 J-155           	857.8021    	0.62        	11              	;
 J-156           	858.4855    	0.354       	11              	;
 J-157           	888.071     	0.25        	11              	;
 J-158           	905.4678    	1.066       	11              	;
 J-159           	881.181     	0.175       	11              	;
 J-16            	873.8046    	1.649       	11              	;
 J-160           	904.007     	0.365       	11              	;
 J-161           	1204.991    	0.916       	11              	;
 J-162           	816.3106    	0           	                	;
 J-163           	851.4582    	4.332       	11              	;
 J-164           	953.9335    	2.933       	11              	;
 J-165           	1011.838    	1.321       	11              	;
 J-166           	1161.921    	1.279       	11              	;
 J-167           	881.122     	2.665       	11              	;
 J-168           	929.3681    	1.42        	11              	;
 J-169           	817.9205    	8.016       	11              	;
 J-17            	821.316     	0.443       	11              	;
 J-170           	920.4334    	4.818       	11              	;
 J-171           	907.8921    	1.54        	11              	;
 J-173           	986.5501    	5.881       	11              	;
 J-174           	864.2231    	1.358       	11              	;
 J-175           	977.2876    	0.461       	11              	;
 J-176           	865.7123    	2.688       	11              	;
 J-177           	938.1194    	1.957       	11              	;
 J-178           	1028.286    	6.217       	11              	;
 J-179           	861.959     	0.522       	11              	;
 J-18            	868.2047    	1.864       	11              	;
 J-180           	857.1237    	1.018       	11              	;
 J-181           	858.6425    	1.353       	11              	;
 J-182           	879.0841    	0.691       	11              	;
 J-183           	897.244     	0           	                	;
 J-184           	951.3792    	1.402       	11              	;
 J-185           	858.0267    	1.87        	11              	;
 J-186           	863.4764    	3.146       	11              	;
 J-187           	916.9565    	0.666       	11              	;
 J-188           	865.8304    	0.74        	11              	;
 J-189           	898.5654    	5.911       	11              	;
 J-19            	859.6194    	3.238       	11              	;
 J-190           	1015.941    	2.746       	11              	;
 J-191           	864.9523    	0           	                	;
 J-192           	872.2225    	1.751       	11              	;
 J-193           	853.5125    	0.738       	11              	;
 J-194           	859.9335    	0.515       	11              	;
 J-195           	858.1615    	1.524       	11              	;
 J-196           	915.3968    	0.344       	11              	;
 J-197           	907.5625    	0.529       	11              	;
 J-198           	1298.526    	0           	                	;
 J-199           	897.2482    	0.516       	11              	;
 J-2             	1035.814    	3.78        	11              	;
 J-20            	904.7936    	0.961       	11              	;
 J-200           	882.8318    	0.376       	11              	;
 J-201           	912.1286    	4.249       	11              	;
 J-202           	975.9441    	1.057       	11              	;
 J-203           	1274.924    	2.286       	11              	;
 J-204           	1020.614    	5.436       	11              	;
 J-205           	929.8282    	2.219       	11              	;
 J-206           	810.9816    	0.796       	11              	;
 J-207           	810.231     	4.055       	11              	;
 J-208           	797.0452    	5.296       	11              	;
 J-209           	833.761     	2.624       	11              	;
 J-21            	872.83      	2.685       	11              	;
 J-210           	881.0952    	0.613       	11              	;
 J-211           	870.8761    	1.588       	11              	;
 J-212           	915.023     	0.213       	11              	;
 J-213           	916.5871    	0.255       	11              	;
 J-214           	855.1732    	0.689       	11              	;
 J-215           	893.2797    	0           	                	;
 J-216           	899.2355    	0.059       	11              	;
 J-217           	940.975     	0.053       	11              	;
 J-218           	875.88      	0.376       	11              	;
 J-219           	837.5442    	2.461       	11              	;
 J-22            	919.4841    	4.585       	11              	;
 J-220           	879.9132    	4.198       	11              	;
 J-221           	1085.514    	3.202       	11              	;
 J-222           	873.9936    	2.001       	11              	;
 J-223           	860.3589    	0.869       	11              	;
 J-224           	875.0416    	0.915       	11              	;
 J-226           	869.5549    	0.369       	11              	;
 J-227           	899.2083    	0.725       	11              	;
 J-228           	1020.684    	0.878       	11              	;
 J-229           	932.679     	0.531       	11              	;
 J-23            	768.2193    	8.792       	11              	;
 J-230           	1277.227    	3.228       	11              	;
 J-231           	1136.799    	4.958       	11              	;
 J-232           	1203.467    	1.322       	11              	;
 J-233           	908.5156    	2.348       	11              	;
 J-234           	976.4861    	2.275       	11              	;
 J-235           	1069.859    	0.795       	11              	;
 J-236           	918.6333    	8.321       	11              	;
 J-237           	915.1697    	0.203       	11              	;
 J-239           	896.6388    	0.054       	11              	;
 J-24            	825.5844    	0.319       	11              	;
 J-240           	891.7151    	0.521       	11              	;
 J-241           	900.2406    	9.623       	11              	;
 J-242           	1130.982    	9.077       	11              	;
 J-243           	872.9894    	0.716       	11              	;
 J-244           	933.1938    	1.53        	11              	;
 J-245           	910.5057    	1.824       	11              	;
 J-246           	855.0912    	0.34        	11              	;
 J-247           	851.2573    	0.855       	11              	;
 J-248           	895.2034    	0.263       	11              	;
 J-249           	847.9325    	0.474       	11              	;
 J-25            	871.3768    	1.501       	11              	;
 J-250           	854.3499    	0.167       	11              	;
 J-251           	954.1266    	3.841       	11              	;
 J-252           	1060.42     	2.062       	11              	;
 J-253           	896.6505    	0.123       	11              	;
 J-254           	865.8737    	1.921       	11              	;
 J-255           	902.4641    	1.646       	11              	;
 J-256           	889.959     	1.049       	11              	;
 J-257           	915.0623    	1.69        	11              	;
 J-258           	882.0197    	0.107       	11              	;
 J-259           	857.5723    	0.286       	11              	;
 J-26            	802.1866    	2.163       	11              	;
 J-260           	780.7627    	1.813       	11              	;
 J-261           	731.7192    	1.303       	11              	;
 J-262           	801.576     	1.769       	11              	;
 J-263           	1503.891    	1.419       	11              	;
 J-264           	1394.023    	5.456       	11              	;
 J-265           	1486.987    	1.346       	11              	;
 J-266           	1652.198    	1.045       	11              	;
 J-267           	796.8025    	2.514       	11              	;
 J-268           	933.6047    	5.442       	11              	;
 J-269           	792.9393    	1.781       	11              	;
 J-27            	884.9385    	0.429       	11              	;
 J-270           	928.4474    	0.17        	11              	;
 J-271           	1041.089    	0.793       	11              	;
 J-272           	955.5141    	3.296       	11              	;
 J-273           	864.853     	0.729       	11              	;
 J-274           	906.9274    	0.555       	11              	;
 J-275           	857.1678    	0.473       	11              	;
 J-276           	853.0327    	0.767       	11              	;
 J-277           	900.4609    	0.856       	11              	;
 J-278           	959.5438    	0.708       	11              	;
 J-279           	943.0487    	1.462       	11              	;
 J-28            	857.9258    	1.888       	11              	;
 J-280           	939.7632    	4.046       	11              	;
 J-281           	1281.842    	1.609       	11              	;
 J-282           	907.3055    	3.74        	11              	;
 J-283           	917.2003    	3.508       	11              	;
 J-284           	821.1119    	4.406       	11              	;
 J-286           	1009.608    	0.897       	11              	;
 J-287           	1004.956    	0.377       	11              	;
 J-288           	996.0931    	0.667       	11              	;
 J-289           	911.8095    	1.909       	11              	;
 J-29            	845.8478    	1.525       	11              	;
 J-290           	876.6397    	2.159       	11              	;
 J-291           	882.3793    	2.964       	11              	;
 J-292           	865.2385    	0.52        	11              	;
 J-294           	958.9999    	0.036       	11              	;
 J-295           	961.3851    	0.173       	11              	;
 J-296           	888.8898    	5.631       	11              	;
 J-297           	1209.545    	0.33        	11              	;
 J-298           	1124.182    	0.486       	11              	;
 J-299           	811.7334    	6.832       	11              	;
 J-3             	905.9592    	2.546       	11              	;
 J-30            	892.6323    	6.511       	11              	;
 J-300           	879.9893    	1.801       	11              	;
 J-301           	807.3615    	1.424       	11              	;
 J-302           	859.6786    	0.87        	11              	;
 J-303           	854.8957    	5.518       	11              	;
 J-304           	891.0228    	0.164       	11              	;
 J-305           	891.0461    	0.469       	11              	;
 J-306           	957.9426    	1.05        	11              	;
 J-307           	867.726     	2.845       	11              	;
 J-308           	888.3326    	0.32        	11              	;
 J-309           	1007.329    	0.295       	11              	;
 J-31            	857.2095    	7.831       	11              	;
 J-310           	969.0999    	1.129       	11              	;
 J-311           	832.066     	3.565       	11              	;
 J-313           	877.1818    	0.196       	11              	;
 J-314           	916.7357    	0.232       	11              	;
 J-315           	882.6295    	1.484       	11              	;
 J-316           	863.3277    	0.591       	11              	;
 J-317           	862.3051    	1.097       	11              	;
 J-318           	894.0441    	6.278       	11              	;
 J-32            	855.0686    	0.761       	11              	;
 J-320           	844.4197    	1.309       	11              	;
 J-321           	1057.044    	0.151       	11              	;
 J-322           	1205.271    	0.796       	11              	;
 J-324           	826.4572    	2.084       	11              	;
 J-325           	916.9662    	1.006       	11              	;
 J-326           	926.6071    	2.372       	11              	;
 J-327           	1104.847    	2.69        	11              	;
 J-328           	1263.674    	1.53        	11              	;
 J-33            	993.8724    	2.771       	11              	;
 J-330           	852.6658    	1.167       	11              	;
 J-331           	895.9724    	3.944       	11              	;
 J-332           	1468.462    	2.838       	11              	;
 J-333           	1478.405    	3.101       	11              	;
 J-334           	897.9674    	1.681       	11              	;
 J-335           	910.0288    	3.377       	11              	;
 J-336           	873.205     	2.764       	11              	;
 J-337           	860.3036    	0.529       	11              	;
 J-338           	807.9829    	1.619       	11              	;
 J-339           	853.9338    	0.161       	11              	;
 J-34            	1569.882    	1.917       	11              	;
 J-340           	870.2347    	3.777       	11              	;
 J-341           	874.934     	1.375       	11              	;
 J-342           	943.7942    	0.343       	11              	;
 J-343           	918.5153    	1.185       	11              	;
 J-344           	916.2611    	1.714       	11              	;
 J-345           	787.8898    	2.282       	11              	;
 J-346           	1348.762    	4.35        	11              	;
 J-347           	923.1267    	1.009       	11              	;
 J-348           	875.9151    	0.493       	11              	;
 J-349           	871.4737    	0.397       	11              	;
 J-35            	946.3931    	1.293       	11              	;
 J-350           	966.1048    	0.48        	11              	;
 J-351           	859.9092    	1.605       	11              	;
 J-352           	904.6806    	0.415       	11              	;
 J-353           	888.1711    	0.904       	11              	;
 J-354           	917.8163    	0.746       	11              	;
 J-355           	910.079     	2.367       	11              	;
 J-356           	858.5777    	0.299       	11              	;
 J-357           	1225.613    	8.572       	11              	;
 J-358           	953.0703    	0.856       	11              	;
 J-359           	1182.432    	1.463       	11              	;
 J-36            	869.0413    	9.229       	11              	;
 J-361           	986.5096    	0.923       	11              	;
 J-362           	825.7568    	1.162       	11              	;
 J-363           	908.1333    	0.534       	11              	;
 J-364           	908.2796    	0.143       	11              	;
 J-365           	946.6546    	0.392       	11              	;
 J-366           	959.4054    	0.053       	11              	;
 J-367           	975.3076    	3.851       	11              	;
 J-368           	874.2568    	2.78        	11              	;
 J-369           	934.5998    	1.073       	11              	;
 J-37            	884.9142    	4.489       	11              	;
 J-370           	960.2401    	1.532       	11              	;
 J-371           	1042.229    	0.377       	11              	;
 J-372           	940.2241    	0.105       	11              	;
 J-373           	905.1574    	4.307       	11              	;
 J-374           	915.1223    	0.817       	11              	;
 J-375           	805.4102    	5.107       	11              	;
 J-376           	890.8901    	1.608       	11              	;
 J-377           	890.4012    	2.195       	11              	;
 J-378           	912.557     	0.982       	11              	;
 J-379           	928.5355    	0.201       	11              	;
 J-38            	936.85      	1.759       	11              	;
 J-380           	785.4839    	5.997       	11              	;
 J-381           	956.4138    	1.815       	11              	;
 J-382           	872.472     	0.281       	11              	;
 J-384           	865.5309    	5.3         	11              	;
 J-385           	862.8024    	1.088       	11              	;
 J-386           	916.2935    	2.954       	11              	;
 J-387           	982.2441    	0.22        	11              	;
 J-388           	871.1949    	2.126       	11              	;
 J-389           	934.653     	0.822       	11              	;
 J-39            	877.6287    	2.094       	11              	;
 J-390           	931.7991    	0.339       	11              	;
 J-391           	948.8831    	0.957       	11              	;
 J-392           	939.7407    	2.35        	11              	;
 J-393           	1036.368    	2.699       	11              	;
 J-394           	987.7914    	3.271       	11              	;
 J-395           	1265.977    	3.977       	11              	;
 J-396           	1275.458    	1.218       	11              	;
 J-397           	921.1927    	1.029       	11              	;
 J-399           	889.3684    	1.012       	11              	;
 J-4             	915.4558    	1.702       	11              	;
 J-40            	846.25      	2.195       	11              	;
 J-400           	882.0575    	0.392       	11              	;
 J-401           	856.1255    	0.469       	11              	;
 J-402           	857.9173    	2.141       	11              	;
 J-403           	861.4396    	1.469       	11              	;
 J-404           	886.0495    	1.18        	11              	;
 J-405           	901.3066    	0.37        	11              	;
 J-406           	972.3654    	9.262       	11              	;
 J-407           	911.1252    	0.16        	11              	;
 J-408           	904.5205    	0.386       	11              	;
 J-409           	854.1279    	0.122       	11              	;
 J-41            	876.9189    	0.956       	11              	;
 J-410           	897.6112    	0.186       	11              	;
 J-411           	858.3289    	0.366       	11              	;
 J-412           	876.1429    	0.086       	11              	;
 J-413           	901.1375    	1.222       	11              	;
 J-414           	1512.465    	2.154       	11              	;
 J-415           	1302.295    	1.547       	11              	;
 J-416           	888.0784    	0.323       	11              	;
 J-417           	1046.586    	1.066       	11              	;
 J-418           	1107.643    	1.115       	11              	;
 J-419           	910.4126    	0.076       	11              	;
 J-42            	786.3456    	2.941       	11              	;
 J-421           	871.345     	0.196       	11              	;
 J-422           	869.4531    	0.067       	11              	;
 J-423           	923.6902    	0.09        	11              	;
 J-424           	935.8748    	0.639       	11              	;
 J-425           	1109.446    	3.961       	11              	;
 J-426           	913.4969    	1.849       	11              	;
 J-427           	926.033     	0.156       	11              	;
 J-428           	1379.448    	0.694       	11              	;
 J-429           	898.2898    	5.025       	11              	;
 J-43            	904.52      	0.085       	11              	;
 J-430           	764.7927    	0.174       	11              	;
 J-431           	853.9481    	0.314       	11              	;
 J-432           	874.3638    	1.147       	11              	;
 J-433           	899.0455    	1.071       	11              	;
 J-434           	1150.511    	1.813       	11              	;
 J-435           	829.3761    	0.761       	11              	;
 J-436           	918.4193    	3.17        	11              	;
 J-437           	870.3122    	0.067       	11              	;
 J-438           	792.1823    	2.699       	11              	;
 J-44            	880.94      	0.209       	11              	;
 J-440           	938.7907    	0.912       	11              	;
 J-441           	820.6572    	4.078       	11              	;
 J-442           	832.2682    	3.199       	11              	;
 J-444           	997.1141    	0.982       	11              	;
 J-445           	956.1198    	0.901       	11              	;
 J-446           	948.6992    	1.383       	11              	;
 J-447           	856.5505    	0.08        	11              	;
 J-448           	1068.521    	0.077       	11              	;
 J-449           	1065.774    	0.225       	11              	;
 J-45            	866.54      	0.618       	11              	;
 J-450           	922.4603    	0.176       	11              	;
 J-451           	918.6608    	0.069       	11              	;
 J-452           	820.2157    	4.711       	11              	;
 J-453           	996.5876    	3.932       	11              	;
 J-454           	857.2524    	1.537       	11              	;
 J-455           	820.9841    	0.295       	11              	;
 J-456           	808.5272    	3.838       	11              	;
 J-457           	946.2092    	1.503       	11              	;
 J-458           	1218.739    	1.176       	11              	;
 J-46            	888.8423    	2.28        	11              	;
 J-460           	1133.428    	0.087       	11              	;
 J-461           	915.1122    	3.806       	11              	;
 J-462           	1026.175    	1.632       	11              	;
 J-463           	856.3391    	5.984       	11              	;
 J-464           	877.6062    	6.018       	11              	;
 J-465           	1427.467    	4.691       	11              	;
 J-466           	926.8088    	0.442       	11              	;
 J-467           	870.5936    	0.289       	11              	;
 J-469           	943.2756    	0.065       	11              	;
 J-47            	902.789     	0           	                	;
 J-470           	962.9944    	0.222       	11              	;
 J-472           	938.4179    	1.222       	11              	;
 J-473           	775.8064    	2.748       	11              	;
 J-474           	773.0842    	2.56        	11              	;
 J-476           	858.3407    	0.045       	11              	;
 J-477           	913.7922    	1.427       	11              	;
 J-478           	991.0442    	0.284       	11              	;
 J-479           	953.4218    	0.842       	11              	;
 J-48            	895.3137    	4.868       	11              	;
 J-480           	870.0417    	0.961       	11              	;
 J-481           	884.2433    	1.662       	11              	;
 J-482           	1014.038    	0.485       	11              	;
 J-484           	902.2664    	0.298       	11              	;
 J-485           	1044.903    	1.497       	11              	;
 J-486           	952.0574    	1.095       	11              	;
 J-488           	1025.508    	0.955       	11              	;
 J-49            	872.0357    	0.737       	11              	;
 J-490           	939.3114    	7.817       	11              	;
 J-491           	934.173     	5.903       	11              	;
 J-492           	1075.496    	2.853       	11              	;
 J-493           	1279.734    	0.306       	11              	;
 J-494           	878.4167    	0.526       	11              	;
 J-495           	785.1415    	4.885       	11              	;
 J-496           	948.5295    	3.791       	11              	;
 J-497           	857.3401    	0.269       	11              	;
 J-498           	877.9095    	2.671       	11              	;
 J-499           	921.391     	0.32        	11              	;
 J-5             	888.4332    	0           	                	;
 J-50            	875.6846    	2.084       	11              	;
 J-500           	1019.535    	1.321       	11              	;
 J-501           	777.7853    	3.273       	11              	;
 J-502           	836.3597    	7.262       	11              	;
 J-503           	895.2371    	3.386       	11              	;
 J-504           	956.7793    	3.669       	11              	;
 J-505           	1009.101    	0.553       	11              	;
 J-506           	986.8508    	2.042       	11              	;
 J-507           	1009.521    	0.546       	11              	;
 J-508           	929.9955    	2.536       	11              	;
 J-509           	966.9644    	1.092       	11              	;
 J-51            	799.6152    	0.719       	11              	;
 J-510           	998.3074    	1.104       	11              	;
 J-511           	1066.228    	1.358       	11              	;
 J-512           	947.1428    	0.36        	11              	;
 J-513           	1082.846    	0.94        	11              	;
 J-514           	876.5627    	2.027       	11              	;
 J-516           	855.1635    	0.267       	11              	;
 J-517           	897.1501    	0.248       	11              	;
 J-518           	960.6916    	0.755       	11              	;
 J-519           	981.1243    	0.543       	11              	;
 J-52            	808.5374    	5.87        	11              	;
 J-520           	959.3722    	1.885       	11              	;
 J-521           	1074.432    	1.069       	11              	;
 J-522           	967.6119    	0.367       	11              	;
 J-523           	964.1064    	0.202       	11              	;
 J-524           	970.805     	0.408       	11              	;
 J-525           	950.1495    	0.079       	11              	;
 J-526           	851.1884    	1.483       	11              	;
 J-527           	861.5182    	0.875       	11              	;
 J-528           	978.6781    	1.065       	11              	;
 J-53            	828.8377    	2.615       	11              	;
 J-530           	1023.878    	2.314       	11              	;
 J-531           	831.8243    	6.133       	11              	;
 J-532           	953.2395    	3.74        	11              	;
 J-533           	913.3972    	0.627       	11              	;
 J-534           	867.7884    	0.694       	11              	;
 J-535           	900.6401    	0.919       	11              	;
 J-536           	947.0266    	10.54       	11              	;
 J-537           	1019.573    	3.765       	11              	;
 J-538           	938.2294    	0.261       	11              	;
 J-539           	996.8821    	0.252       	11              	;
 J-54            	824.3687    	3.792       	11              	;
 J-540           	937.2123    	0.819       	11              	;
 J-542           	921.0335    	0.984       	11              	;
 J-543           	862.2979    	0.029       	11              	;
 J-544           	870.7891    	0.662       	11              	;
 J-545           	852.1924    	0.32        	11              	;
 J-547           	925.2291    	1.251       	11              	;
 J-548           	981.2397    	2.024       	11              	;
 J-55            	875.8926    	1.706       	11              	;
 J-551           	841.1976    	0.329       	11              	;
 J-552           	950.9146    	0.554       	11              	;
 J-554           	1049.871    	0.208       	11              	;
 J-555           	961.0862    	0.221       	11              	;
 J-556           	915.1844    	1.1         	11              	;
 J-557           	839.5115    	3.974       	11              	;
 J-558           	916.9732    	0.178       	11              	;
 J-559           	839.6017    	3.008       	11              	;
 J-56            	896.6143    	2.311       	11              	;
 J-561           	906.6212    	0.737       	11              	;
 J-562           	873.847     	1.06        	11              	;
 J-563           	954.1786    	0.439       	11              	;
 J-564           	892.3596    	0.396       	11              	;
 J-565           	985.6165    	2.469       	11              	;
 J-566           	1010.725    	0.285       	11              	;
 J-568           	831.8088    	5.089       	11              	;
 J-57            	909.3689    	1.083       	11              	;
 J-570           	1060.08     	0.801       	11              	;
 J-571           	918.5227    	0.268       	11              	;
 J-574           	952.7385    	1.294       	11              	;
 J-575           	912.772     	1.744       	11              	;
 J-576           	956.9435    	1.62        	11              	;
 J-577           	808.0842    	0.725       	11              	;
 J-578           	1361.233    	0.584       	11              	;
 J-579           	943.436     	0.568       	11              	;
 J-58            	917.2755    	0.703       	11              	;
 J-580           	884.9526    	0.056       	11              	;
 J-581           	882.7098    	0.164       	11              	;
 J-582           	840.6416    	0.173       	11              	;
 J-583           	874.1187    	2.913       	11              	;
 J-584           	1004.328    	0.249       	11              	;
 J-585           	928.87      	1.496       	11              	;
 J-586           	848.4766    	0.378       	11              	;
 J-587           	808.7008    	0.551       	11              	;
 J-588           	826.2064    	1.219       	11              	;
 J-589           	800.5443    	0.265       	11              	;
 J-59            	926.975     	0.199       	11              	;
 J-591           	1070.676    	2.709       	11              	;
 J-592           	949.321     	2.549       	11              	;
 J-593           	875.7114    	0.074       	11              	;
 J-596           	792.9758    	3.031       	11              	;
 J-597           	883.7429    	0.042       	11              	;
 J-598           	891.1812    	2.383       	11              	;
 J-599           	786.2389    	0.251       	11              	;
 J-6             	825.1       	0.107       	11              	;
 J-60            	848.1243    	8.417       	11              	;
 J-600           	968.3859    	1.833       	11              	;
 J-601           	818.9684    	0.743       	11              	;
 J-602           	860.22      	1.802       	11              	;
 J-603           	925.0679    	0.655       	11              	;
 J-604           	805.2017    	1.103       	11              	;
 J-605           	861.5221    	1.194       	11              	;
 J-606           	991.6851    	0.341       	11              	;
 J-608           	929.35      	0.25        	11              	;
 J-61            	861.8711    	6.338       	11              	;
 J-610           	887.1608    	0.078       	11              	;
 J-612           	847.6828    	0.339       	11              	;
 J-613           	780.4276    	1.897       	11              	;
 J-614           	901.6626    	0.301       	11              	;
 J-615           	791.3043    	2.221       	11              	;
 J-617           	956.8094    	1.233       	11              	;
 J-618           	923.0382    	0.093       	11              	;
 J-619           	966.519     	0.229       	11              	;
 J-62            	917.9244    	0.599       	11              	;
 J-63            	899.1619    	0.726       	11              	;
 J-64            	854.9982    	2.605       	11              	;
 J-65            	857.7144    	3.899       	11              	;
 J-66            	863.3135    	4.152       	11              	;
 J-67            	909.4307    	6.366       	11              	;
 J-68            	857.1318    	0.126       	11              	;
 J-69            	888.9512    	0           	                	;
 J-7             	856.7901    	2.031       	11              	;
 J-70            	877.9022    	5.581       	11              	;
 J-71            	905.5919    	5.133       	11              	;
 J-72            	838.3887    	0.353       	11              	;
 J-73            	874.5153    	0           	                	;
 J-74            	851.9447    	0.371       	11              	;
 J-75            	854.6694    	0.614       	11              	;
 J-76            	849.3143    	2.017       	11              	;
 J-77            	817.7749    	0.102       	11              	;
 J-78            	875.17      	1.695       	11              	;
 J-78a           	835.2324    	1.656       	11              	;
 J-79            	908.4188    	2.563       	11              	;
 J-8             	857.0432    	2.633       	11              	;
 J-80            	1559.724    	0           	                	;
 J-82            	832.6065    	0.176       	11              	;
 J-83            	946.9102    	0.446       	11              	;
 J-84            	944.2125    	1.374       	11              	;
 J-85            	833.71      	0.445       	11              	;
 J-86            	1029.325    	0.576       	11              	;
 J-87            	931.1101    	7.576       	11              	;
 J-88            	838.2935    	0.757       	11              	;
 J-89            	778.658     	3.323       	11              	;
 J-9             	844.6915    	1.615       	11              	;
 J-90            	930.6887    	0.719       	11              	;
 J-91            	917.9359    	0.166       	11              	;
 J-92            	1018.447    	3.611       	11              	;
 J-93            	988.9163    	5.753       	11              	;
 J-94            	948.9678    	1.4         	11              	;
 J-95            	1005.443    	1.271       	11              	;
 J-96            	870.0736    	0.046       	11              	;
 J-97            	907.5375    	1.177       	11              	;
 J-98            	791.3688    	1.168       	11              	;
 J-99            	796.1707    	0.675       	11              	;
 I-Pump-1        	928.5338    	0           	11              	;
 I-Pump-10       	905.5452    	0           	11              	;
 O-Pump-11       	888.006     	0           	11              	;
 O-Pump-12       	892.3919    	0           	11              	;
 I-Pump-13       	788.749     	0           	11              	;
 O-Pump-2        	1021.41     	0           	11              	;
 O-Pump-3        	1214.4      	0           	11              	;
 I-Pump-4        	883.7371    	0           	11              	;
 O-Pump-5        	1010.751    	0           	11              	;
 O-Pump-6        	1300.753    	0           	11              	;
 O-Pump-7        	812.355     	0           	11              	;
 O-Pump-8        	854.2194    	0           	11              	;
 I-Pump-9        	1074        	0           	11              	;
 I-RV-1          	1067.307    	0           	                	;
 I-RV-10         	1464.844    	0           	                	;
 I-RV-11         	985.0329    	0           	                	;
 I-RV-12         	1195.605    	0           	                	;
 I-RV-13         	980.4224    	0           	                	;
 I-RV-14         	1057.414    	0           	                	;
 I-RV-15         	1061.401    	0           	                	;
 I-RV-16         	1002.014    	0           	                	;
 I-RV-17         	995.6348    	0           	                	;
 I-RV-18         	1406.62     	0           	                	;
 O-RV-19         	946.736     	0           	                	;
 I-RV-2          	1109.057    	0           	                	;
 O-RV-20         	851.0228    	0           	                	;
 I-RV-21         	940.0917    	0           	                	;
 I-RV-22         	1067.943    	0           	                	;
 I-RV-23         	993.3105    	0           	                	;
 I-RV-24         	974.4718    	0           	                	;
 I-RV-25         	989.961     	0           	                	;
 I-RV-26         	1037.749    	0           	                	;
 I-RV-27         	982.9106    	0           	                	;
 I-RV-28         	925.6729    	0           	                	;
 I-RV-3          	1034.935    	0           	                	;
 I-RV-4          	1114.329    	0           	                	;
 O-RV-5          	1218.074    	0           	                	;
 I-RV-6          	1025.949    	0           	                	;
 O-RV-7          	1016.019    	0           	                	;
 I-RV-8          	1292.044    	0           	                	;
 O-RV-9          	1199.068    	0           	                	;
 O-Pump-1        	928.5338    	0           	11              	;
 O-Pump-10       	905.5452    	0           	11              	;
 I-Pump-11       	888.006     	0           	11              	;
 I-Pump-12       	892.3919    	0           	11              	;
 O-Pump-13       	788.749     	0           	11              	;
 I-Pump-2        	1021.41     	0           	11              	;
 I-Pump-3        	1214.4      	0           	11              	;
 O-Pump-4        	883.7371    	0           	11              	;
 I-Pump-5        	1010.751    	0           	11              	;
 I-Pump-6        	1300.753    	0           	11              	;
 I-Pump-7        	812.355     	0           	11              	;
 I-Pump-8        	854.2194    	0           	11              	;
 O-Pump-9        	1074        	0           	11              	;
 O-RV-1          	1067.307    	0           	                	;
 O-RV-10         	1464.844    	0           	                	;
 O-RV-11         	985.0329    	0           	                	;
 O-RV-12         	1195.605    	0           	                	;
 O-RV-13         	980.4224    	0           	                	;
 O-RV-14         	1057.414    	0           	                	;
 O-RV-15         	1061.401    	0           	                	;
 O-RV-16         	1002.014    	0           	                	;
 O-RV-17         	995.6348    	0           	                	;
 O-RV-18         	1406.62     	0           	                	;
 I-RV-19         	946.736     	0           	                	;
 O-RV-2          	1109.057    	0           	                	;
 I-RV-20         	851.0228    	0           	                	;
 O-RV-21         	940.0917    	0           	                	;
 O-RV-22         	1067.943    	0           	                	;
 O-RV-23         	993.3105    	0           	                	;
 O-RV-24         	974.4718    	0           	                	;
 O-RV-25         	989.961     	0           	                	;
 O-RV-26         	1037.749    	0           	                	;
 O-RV-27         	982.9106    	0           	                	;
 O-RV-28         	925.6729    	0           	                	;
 O-RV-3          	1034.935    	0           	                	;
 O-RV-4          	1114.329    	0           	                	;
 I-RV-5          	1218.074    	0           	                	;
 O-RV-6          	1025.949    	0           	                	;
 I-RV-7          	1016.019    	0           	                	;
 O-RV-8          	1292.044    	0           	                	;
 I-RV-9          	1199.068    	0           	                	;

[RESERVOIRS]
;ID              	Head        	Pattern         
 R-1             	971         	                	;
 R-2             	1214        	                	;

[TANKS]
;ID              	Elevation   	InitLevel   	MinLevel    	MaxLevel    	Diameter    	MinVol      	VolCurve        	Overflow
 T-1             	1247.811    	77.18933    	67.18933    	87.18933    	29.17       	0           	                	;
 T-2             	1075.792    	52.20825    	44.20825    	64.20825    	36.9        	0           	                	;
 T-3             	1027.191    	131.8093    	107.8093    	142.8093    	56.22       	0           	                	;
 T-4             	947.9733    	124.0267    	117.0267    	137.0267    	29.17       	0           	                	;
 T-5             	1037.383    	127.6171    	117.6171    	142.6171    	30.32       	0           	                	;
 T-6             	1176.31     	30.68994    	15.68994    	38.68994    	60.83       	0           	                	;
 T-7             	1315.102    	45.89771    	14.89771    	54.89771    	45.43       	0           	                	;
 T-8             	1661.353    	56.64709    	18.64709    	59.64709    	20.37       	0           	                	;

[PIPES]
;ID              	Node1           	Node2           	Length      	Diameter    	Roughness   	MinorLoss   	Status
 P-1             	J-1             	I-RV-25         	7963.089    	4           	150         	0           	Open  	;
 P-10            	J-18            	J-37            	632.989     	6           	140         	0           	Open  	;
 P-100           	J-159           	J-160           	538.359     	6           	69.091      	0           	Open  	;
 P-101           	J-161           	T-1             	188.85      	6           	140         	0           	Open  	;
 P-102           	J-163           	J-164           	5458.149    	3           	122.8135    	0           	Open  	;
 P-103           	J-165           	I-RV-4          	2403.5      	4           	150         	0           	Open  	;
 P-104           	J-167           	J-168           	2641.959    	3           	150         	0           	Open  	;
 P-105           	J-169           	J-53            	193.449     	6           	150         	0           	Open  	;
 P-106           	J-170           	J-171           	2864.719    	3           	131.3043    	0           	Open  	;
 P-107           	J-173           	J-6             	14678.429   	4           	150         	0           	Open  	;
 P-108           	J-174           	J-175           	1143.069    	4           	140         	0           	Open  	;
 P-109           	J-176           	J-177           	3641.3      	3           	122.8135    	0           	Open  	;
 P-11            	J-20            	T-3             	1874.65     	10          	140         	0           	Open  	;
 P-110           	J-103           	J-178           	2098.02     	8           	140         	0           	Open  	;
 P-111           	J-179           	J-180           	1294.219    	4           	59.091      	0           	Open  	;
 P-112           	J-181           	J-182           	1286.329    	3           	122.8135    	0           	Open  	;
 P-113           	J-184           	J-530           	3478.429    	4           	128.0722    	0           	Open  	;
 P-114           	J-185           	J-186           	489.25      	3           	122.8135    	0           	Open  	;
 P-115           	J-187           	J-275           	828.09      	6           	150         	0           	Open  	;
 P-116           	J-189           	J-190           	6813.419    	4           	120         	0           	Open  	;
 P-117           	J-192           	J-44            	628.77      	6           	140         	0           	Open  	;
 P-118           	J-31            	J-193           	2747.86     	6           	102.6087    	0           	Open  	;
 P-119           	J-194           	J-195           	522.02      	3           	140         	0           	Open  	;
 P-12            	J-22            	J-23            	17063.949   	6           	140         	0           	Open  	;
 P-120           	J-196           	J-197           	149.91      	6           	140         	0           	Open  	;
 P-121           	J-86            	O-Pump-2        	364.769     	6           	140         	0           	Open  	;
 P-122           	J-139           	J-200           	907.78      	6           	140         	0           	Open  	;
 P-123           	J-201           	J-202           	1275.67     	1           	122.8135    	0           	Open  	;
 P-124           	J-203           	J-204           	5672.049    	4           	150         	0           	Open  	;
 P-125           	J-56            	J-205           	5506.419    	4           	120         	0           	Open  	;
 P-126           	J-206           	J-207           	444.57      	6           	150         	0           	Open  	;
 P-127           	J-208           	J-209           	3218.679    	4           	150         	0           	Open  	;
 P-128           	J-210           	J-31            	2279.79     	6           	102.6087    	0           	Open  	;
 P-129           	J-211           	J-18            	2955.429    	3           	140         	0           	Open  	;
 P-13            	J-24            	J-28            	353.519     	2           	140         	0           	Open  	;
 P-130           	J-212           	I-Pump-9        	565.76      	8           	140         	0           	Open  	;
 P-131           	J-58            	J-213           	473.69      	3           	150         	0           	Open  	;
 P-132           	J-27            	J-32            	342.739     	6           	86.1445     	0           	Open  	;
 P-133           	J-132           	J-20            	934.57      	8           	140         	0           	Open  	;
 P-134           	J-216           	J-38            	186.46      	6           	140         	0           	Open  	;
 P-135           	J-218           	J-72            	479.609     	8           	140         	0           	Open  	;
 P-136           	J-219           	J-155           	614.169     	6           	140         	0           	Open  	;
 P-137           	J-220           	I-RV-13         	9003.73     	6           	122.8135    	0           	Open  	;
 P-138           	J-130           	J-222           	4027.939    	6           	140         	0           	Open  	;
 P-139           	J-223           	J-224           	763.239     	3           	140         	0           	Open  	;
 P-14            	J-26            	T-2             	2143.229    	8           	140         	0           	Open  	;
 P-140           	J-32            	J-29            	655.099     	6           	86.1445     	0           	Open  	;
 P-141           	J-115           	J-226           	458.45      	6           	69.091      	0           	Open  	;
 P-142           	J-138           	J-227           	157.74      	3           	140         	0           	Open  	;
 P-143           	J-228           	J-114           	331.22      	6           	140         	0           	Open  	;
 P-144           	J-204           	O-RV-7          	509.95      	4           	150         	0           	Open  	;
 P-145           	J-178           	I-RV-12         	4365.529    	3           	140         	0           	Open  	;
 P-146           	J-231           	J-232           	3281.1      	4           	150         	0           	Open  	;
 P-147           	J-233           	I-Pump-10       	542.84      	4           	150         	0           	Open  	;
 P-148           	J-234           	I-RV-3          	1148.119    	4           	140         	0           	Open  	;
 P-149           	J-236           	J-187           	1650.38     	6           	150         	0           	Open  	;
 P-15            	J-28            	J-77            	126.239     	2           	150         	0           	Open  	;
 P-150           	J-237           	J-58            	378         	3           	150         	0           	Open  	;
 P-151           	J-188           	J-206           	2518.939    	6           	150         	0           	Open  	;
 P-152           	J-234           	J-321           	7190.74     	6           	140         	0           	Open  	;
 P-153           	J-239           	J-240           	87.169      	6           	140         	0           	Open  	;
 P-154           	J-241           	J-242           	16890.39    	3           	131.3043    	0           	Open  	;
 P-155           	J-3             	J-243           	1305.239    	6           	150         	0           	Open  	;
 P-156           	J-16            	J-244           	7380.799    	8           	140         	0           	Open  	;
 P-157           	J-245           	J-3             	1833.51     	6           	150         	0           	Open  	;
 P-158           	J-246           	J-247           	1288.81     	6           	140         	0           	Open  	;
 P-159           	J-248           	J-83            	827.28      	6           	129.9604    	0           	Open  	;
 P-16            	J-30            	J-31            	24113.25    	6           	131.3043    	0           	Open  	;
 P-160           	J-249           	J-250           	620.34      	6           	140         	0           	Open  	;
 P-161           	J-251           	I-RV-26         	4283.669    	4           	140         	0           	Open  	;
 P-162           	J-212           	J-253           	341.16      	6           	140         	0           	Open  	;
 P-163           	J-197           	J-240           	1488.089    	8           	140         	0           	Open  	;
 P-164           	J-254           	J-255           	3043.229    	4           	150         	0           	Open  	;
 P-165           	J-256           	J-257           	3473.79     	6           	150         	0           	Open  	;
 P-166           	J-258           	J-259           	314.019     	6           	140         	0           	Open  	;
 P-167           	J-260           	J-261           	4847.979    	6           	150         	0           	Open  	;
 P-168           	J-262           	J-51            	2555.37     	6           	150         	0           	Open  	;
 P-169           	J-137           	J-55            	3704.57     	4           	120         	0           	Open  	;
 P-17            	J-6             	J-324           	978.419     	4           	140         	0           	Open  	;
 P-170           	J-263           	J-264           	1745.119    	6           	150         	0           	Open  	;
 P-171           	J-265           	J-266           	2047.8      	6           	150         	0           	Open  	;
 P-172           	J-233           	J-104           	4622.399    	6           	150         	0           	Open  	;
 P-173           	J-267           	J-268           	3946.12     	6           	150         	0           	Open  	;
 P-174           	J-89            	J-269           	1216.859    	6           	150         	0           	Open  	;
 P-175           	J-270           	J-131           	79.94       	6           	69.091      	0           	Open  	;
 P-176           	J-271           	J-272           	1476.359    	3           	140         	0           	Open  	;
 P-177           	J-273           	J-274           	1033.42     	3           	141.8326    	0           	Open  	;
 P-178           	J-145           	J-263           	3534.51     	6           	150         	0           	Open  	;
 P-179           	J-275           	J-588           	463.95      	4           	144.7356    	0           	Open  	;
 P-18            	J-34            	T-8             	510.459     	4           	150         	0           	Open  	;
 P-180           	J-19            	J-277           	1062.319    	2           	140         	0           	Open  	;
 P-181           	J-278           	J-279           	2435.79     	6           	150         	0           	Open  	;
 P-182           	J-104           	J-280           	7834.2      	6           	150         	0           	Open  	;
 P-183           	J-92            	J-281           	3992.58     	4           	150         	0           	Open  	;
 P-184           	J-282           	I-Pump-11       	2396.86     	6           	140         	0           	Open  	;
 P-185           	J-284           	J-531           	9162.29     	4           	144.7356    	0           	Open  	;
 P-186           	J-286           	J-287           	234.039     	1           	140         	0           	Open  	;
 P-187           	J-288           	J-272           	1240.969    	3           	140         	0           	Open  	;
 P-188           	J-137           	J-289           	4736.06     	4           	120         	0           	Open  	;
 P-189           	J-290           	J-291           	3331.35     	8           	140         	0           	Open  	;
 P-19            	J-36            	J-37            	8148.879    	4           	141.8326    	0           	Open  	;
 P-190           	J-85            	J-72            	52.08       	12          	140         	0           	Open  	;
 P-191           	T-7             	J-198           	1936.77     	8           	140         	0           	Open  	;
 P-192           	J-294           	J-295           	134.07      	6           	69.091      	0           	Open  	;
 P-193           	J-296           	J-60            	9547.41     	3           	140         	0           	Open  	;
 P-194           	J-297           	J-298           	1156.349    	6           	131.3043    	0           	Open  	;
 P-195           	J-52            	J-299           	21724.88    	6           	150         	0           	Open  	;
 P-196           	J-300           	J-282           	4157.66     	6           	140         	0           	Open  	;
 P-197           	J-26            	O-Pump-7        	1242.79     	8           	140         	0           	Open  	;
 P-198           	J-302           	J-303           	2354.36     	6           	150         	0           	Open  	;
 P-199           	J-304           	J-305           	10.329      	6           	140         	0           	Open  	;
 P-2             	J-3             	J-4             	4221.689    	4           	150         	0           	Open  	;
 P-20            	J-89            	J-23            	5607.45     	6           	150         	0           	Open  	;
 P-200           	J-306           	J-50            	2606.29     	4           	140         	0           	Open  	;
 P-201           	J-307           	J-308           	397.14      	2           	140         	0           	Open  	;
 P-202           	J-309           	J-310           	732.9       	4           	140         	0           	Open  	;
 P-203           	J-311           	J-6             	5730.589    	6           	150         	0           	Open  	;
 P-204           	J-313           	J-314           	509.22      	6           	69.091      	0           	Open  	;
 P-205           	J-315           	J-241           	2030.729    	6           	131.3043    	0           	Open  	;
 P-206           	J-316           	J-317           	37.83       	4           	140         	0           	Open  	;
 P-207           	J-318           	J-315           	3438.61     	6           	131.3043    	0           	Open  	;
 P-208           	J-310           	J-35            	795.799     	6           	140         	0           	Open  	;
 P-209           	J-269           	J-267           	5411.02     	6           	150         	0           	Open  	;
 P-21            	J-440           	J-10            	2263.429    	4           	150         	0           	Open  	;
 P-210           	J-186           	J-122           	2271.479    	3           	122.8135    	0           	Open  	;
 P-211           	J-50            	J-320           	1471.439    	8           	140         	0           	Open  	;
 P-212           	J-321           	J-165           	2323.139    	6           	150         	0           	Open  	;
 P-213           	J-322           	J-161           	2961.08     	6           	131.3043    	0           	Open  	;
 P-214           	T-6             	J-389           	1421.25     	8           	140         	0           	Open  	;
 P-215           	J-325           	J-326           	2651.28     	6           	150         	0           	Open  	;
 P-216           	J-327           	J-92            	2173.379    	6           	150         	0           	Open  	;
 P-217           	J-328           	O-RV-9          	1742.54     	6           	150         	0           	Open  	;
 P-218           	J-183           	J-517           	243.71      	6           	86.1445     	0           	Open  	;
 P-219           	J-71            	J-331           	5558.919    	6           	120         	0           	Open  	;
 P-22            	J-41            	J-7             	2312.77     	4           	140         	0           	Open  	;
 P-220           	J-332           	J-333           	8388.5      	6           	150         	0           	Open  	;
 P-221           	J-160           	J-115           	652.369     	6           	69.091      	0           	Open  	;
 P-222           	J-333           	J-34            	3150.629    	6           	150         	0           	Open  	;
 P-223           	J-334           	J-335           	6255.18     	6           	150         	0           	Open  	;
 P-224           	J-336           	J-61            	5190.129    	8           	140         	0           	Open  	;
 P-225           	J-337           	J-320           	1017.799    	6           	140         	0           	Open  	;
 P-226           	J-338           	J-260           	1899.189    	6           	150         	0           	Open  	;
 P-227           	J-320           	J-147           	3668.06     	8           	140         	0           	Open  	;
 P-228           	J-317           	J-8             	2294.889    	4           	140         	0           	Open  	;
 P-229           	J-339           	J-304           	599.96      	6           	140         	0           	Open  	;
 P-23            	J-23            	J-42            	10048.599   	6           	140         	0           	Open  	;
 P-230           	J-340           	J-318           	5594.569    	6           	122.8135    	0           	Open  	;
 P-231           	J-317           	J-341           	389.89      	4           	140         	0           	Open  	;
 P-232           	J-342           	J-325           	1094.3      	6           	150         	0           	Open  	;
 P-233           	J-326           	J-343           	2522.09     	6           	150         	0           	Open  	;
 P-234           	J-344           	J-233           	498.07      	6           	150         	0           	Open  	;
 P-235           	J-345           	J-299           	3699.879    	6           	150         	0           	Open  	;
 P-236           	J-93            	J-346           	13931.059   	6           	150         	0           	Open  	;
 P-237           	J-343           	J-347           	1885.88     	6           	150         	0           	Open  	;
 P-238           	J-158           	J-196           	1509.25     	8           	140         	0           	Open  	;
 P-239           	J-348           	J-349           	1028.119    	6           	140         	0           	Open  	;
 P-24            	J-10            	I-Pump-5        	5465.08     	6           	140         	0           	Open  	;
 P-240           	J-350           	J-348           	511.97      	6           	59.091      	0           	Open  	;
 P-241           	J-268           	J-338           	4125.75     	6           	150         	0           	Open  	;
 P-242           	J-76            	J-351           	2990.659    	6           	140         	0           	Open  	;
 P-243           	J-352           	J-353           	636.65      	6           	150         	0           	Open  	;
 P-244           	J-347           	J-354           	1867.599    	6           	150         	0           	Open  	;
 P-245           	J-353           	J-167           	2728.909    	6           	150         	0           	Open  	;
 P-246           	J-355           	J-136           	8146.859    	6           	120         	0           	Open  	;
 P-247           	J-189           	J-71            	11777.54    	6           	120         	0           	Open  	;
 P-248           	J-305           	J-356           	587.719     	6           	140         	0           	Open  	;
 P-249           	J-167           	J-245           	1905.119    	6           	150         	0           	Open  	;
 P-25            	J-9             	J-146           	941.59      	8           	140         	0           	Open  	;
 P-250           	J-357           	O-RV-5          	713.179     	6           	150         	0           	Open  	;
 P-251           	J-17            	J-24            	83.199      	4           	140         	0           	Open  	;
 P-252           	J-358           	J-342           	181.38      	6           	150         	0           	Open  	;
 P-253           	J-153           	J-359           	1814.54     	2           	140         	0           	Open  	;
 P-254           	J-21            	J-100           	70.94       	4           	140         	0           	Open  	;
 P-255           	J-201           	J-361           	3436.489    	6           	122.8135    	0           	Open  	;
 P-256           	J-284           	J-362           	1768.79     	4           	140         	0           	Open  	;
 P-257           	J-363           	J-364           	353.549     	4           	140         	0           	Open  	;
 P-258           	J-84            	J-365           	1460.349    	6           	129.9604    	0           	Open  	;
 P-259           	J-127           	J-302           	880.719     	6           	150         	0           	Open  	;
 P-26            	J-9             	J-7             	498.38      	4           	150         	0           	Open  	;
 P-260           	J-366           	J-278           	198.36      	6           	150         	0           	Open  	;
 P-261           	J-318           	J-367           	7166.339    	3           	131.3043    	0           	Open  	;
 P-262           	J-368           	J-369           	1331.349    	2           	140         	0           	Open  	;
 P-263           	J-340           	J-370           	2850.139    	3           	122.8135    	0           	Open  	;
 P-264           	J-371           	J-372           	523.02      	8           	140         	0           	Open  	;
 P-265           	J-373           	J-374           	1013.869    	2           	140         	0           	Open  	;
 P-266           	J-375           	J-376           	3990.229    	4           	140         	0           	Open  	;
 P-267           	J-377           	J-378           	2435.739    	4           	140         	0           	Open  	;
 P-268           	J-379           	J-244           	211.279     	8           	140         	0           	Open  	;
 P-269           	J-354           	J-352           	909.21      	6           	150         	0           	Open  	;
 P-27            	O-Pump-10       	J-145           	12274.849   	4           	150         	0           	Open  	;
 P-270           	J-380           	J-381           	4504.12     	4           	140         	0           	Open  	;
 P-271           	J-114           	J-552           	278.07      	6           	59.091      	0           	Open  	;
 P-272           	J-384           	J-385           	1349.9      	2           	140         	0           	Open  	;
 P-273           	J-384           	J-386           	3665.05     	2           	140         	0           	Open  	;
 P-274           	J-13            	J-379           	781.75      	8           	140         	0           	Open  	;
 P-275           	J-382           	J-73            	204.61      	8           	140         	0           	Open  	;
 P-276           	J-224           	J-387           	272.63      	2           	140         	0           	Open  	;
 P-277           	J-163           	J-388           	1412.609    	6           	122.8135    	0           	Open  	;
 P-278           	J-228           	J-286           	215.52      	2           	140         	0           	Open  	;
 P-279           	J-389           	J-390           	179.36      	6           	140         	0           	Open  	;
 P-28            	J-48            	J-36            	18115.279   	6           	141.8326    	0           	Open  	;
 P-280           	J-310           	J-389           	2305.489    	6           	140         	0           	Open  	;
 P-281           	J-377           	J-391           	2373.149    	4           	140         	0           	Open  	;
 P-282           	J-392           	J-393           	4472.22     	4           	150         	0           	Open  	;
 P-283           	J-134           	I-RV-27         	7077.689    	4           	140         	0           	Open  	;
 P-284           	J-395           	J-396           	2261.55     	4           	150         	0           	Open  	;
 P-285           	J-185           	J-163           	2038.829    	6           	122.8135    	0           	Open  	;
 P-286           	J-286           	J-397           	429.549     	2           	140         	0           	Open  	;
 P-287           	J-47            	J-561           	50.459      	8           	130.6237    	0           	Open  	;
 P-288           	J-400           	J-44            	14.069      	6           	140         	0           	Open  	;
 P-289           	J-390           	J-228           	675.21      	6           	122.8135    	0           	Open  	;
 P-29            	J-49            	J-50            	2742.129    	6           	140         	0           	Open  	;
 P-290           	J-388           	J-176           	1776.92     	6           	122.8135    	0           	Open  	;
 P-291           	J-305           	J-258           	85.709      	6           	140         	0           	Open  	;
 P-292           	J-401           	J-552           	1018.179    	6           	140         	0           	Open  	;
 P-293           	J-402           	J-403           	2958.77     	6           	140         	0           	Open  	;
 P-294           	J-62            	J-107           	334.79      	8           	140         	0           	Open  	;
 P-295           	J-141           	J-62            	193.55      	8           	140         	0           	Open  	;
 P-296           	J-404           	J-133           	3052.669    	6           	140         	0           	Open  	;
 P-297           	J-405           	J-363           	37.529      	6           	59.091      	0           	Open  	;
 P-298           	J-295           	J-350           	508.91      	6           	69.091      	0           	Open  	;
 P-299           	J-406           	J-162           	19667.039   	8           	130.6237    	0           	Open  	;
 P-3             	O-Pump-9        	T-6             	332.44      	8           	140         	0           	Open  	;
 P-30            	J-51            	J-52            	117.849     	6           	150         	0           	Open  	;
 P-300           	J-407           	J-226           	300.48      	4           	69.091      	0           	Open  	;
 P-301           	J-259           	J-401           	50.159      	6           	140         	0           	Open  	;
 P-302           	J-363           	J-408           	1418.599    	6           	59.091      	0           	Open  	;
 P-303           	J-351           	J-174           	1905.579    	6           	140         	0           	Open  	;
 P-304           	J-174           	J-402           	1432.199    	6           	140         	0           	Open  	;
 P-305           	J-116           	J-68            	102.5       	6           	140         	0           	Open  	;
 P-306           	J-356           	J-409           	422.67      	6           	140         	0           	Open  	;
 P-307           	J-410           	J-411           	659.01      	6           	140         	0           	Open  	;
 P-308           	J-194           	J-412           	320.5       	6           	140         	0           	Open  	;
 P-309           	J-195           	J-413           	2273.53     	3           	140         	0           	Open  	;
 P-31            	J-53            	J-54            	96.489      	3           	150         	0           	Open  	;
 P-310           	J-414           	J-415           	5755.99     	6           	150         	0           	Open  	;
 P-311           	J-223           	J-416           	601.739     	3           	140         	0           	Open  	;
 P-312           	J-152           	J-417           	1322.88     	2           	140         	0           	Open  	;
 P-313           	J-65            	J-311           	7624.939    	6           	140         	0           	Open  	;
 P-314           	J-418           	J-170           	3496.639    	6           	131.3043    	0           	Open  	;
 P-315           	J-176           	J-220           	944.88      	6           	122.8135    	0           	Open  	;
 P-316           	J-419           	J-43            	40.97       	6           	59.091      	0           	Open  	;
 P-317           	J-226           	J-421           	315.679     	6           	69.091      	0           	Open  	;
 P-318           	J-399           	J-121           	2367.36     	6           	66.1358     	0           	Open  	;
 P-319           	J-422           	J-405           	153.44      	6           	140         	0           	Open  	;
 P-32            	J-55            	J-56            	228.919     	4           	120         	0           	Open  	;
 P-320           	J-423           	J-131           	370.329     	8           	140         	0           	Open  	;
 P-321           	J-292           	J-78            	2684.81     	12          	140         	0           	Open  	;
 P-322           	J-403           	J-18            	392.709     	6           	140         	0           	Open  	;
 P-323           	J-424           	J-392           	1356.65     	4           	150         	0           	Open  	;
 P-324           	J-393           	J-425           	2223.86     	4           	150         	0           	Open  	;
 P-325           	J-257           	J-426           	2815.36     	6           	150         	0           	Open  	;
 P-326           	J-427           	J-424           	227.979     	4           	150         	0           	Open  	;
 P-327           	J-223           	J-194           	252.529     	3           	140         	0           	Open  	;
 P-328           	J-400           	J-405           	1185.359    	6           	59.091      	0           	Open  	;
 P-329           	J-428           	J-357           	2598.229    	6           	150         	0           	Open  	;
 P-33            	J-57            	J-58            	84.98       	3           	150         	0           	Open  	;
 P-330           	J-429           	J-336           	3091.989    	8           	140         	0           	Open  	;
 P-331           	J-425           	I-RV-8          	6995.319    	4           	150         	0           	Open  	;
 P-332           	J-390           	J-397           	410.66      	6           	140         	0           	Open  	;
 P-333           	J-430           	J-42            	861.14      	8           	140         	0           	Open  	;
 P-334           	J-401           	J-431           	676.309     	6           	140         	0           	Open  	;
 P-335           	J-272           	J-429           	3416.399    	3           	140         	0           	Open  	;
 P-336           	J-432           	J-433           	808.679     	4           	140         	0           	Open  	;
 P-337           	J-321           	I-RV-2          	1097.16     	4           	150         	0           	Open  	;
 P-338           	J-253           	J-239           	115.41      	6           	140         	0           	Open  	;
 P-339           	J-148           	J-435           	143.55      	8           	140         	0           	Open  	;
 P-34            	J-58            	J-59            	370.7       	3           	150         	0           	Open  	;
 P-340           	J-433           	J-436           	1847.43     	4           	140         	0           	Open  	;
 P-341           	J-226           	J-437           	147.32      	6           	69.091      	0           	Open  	;
 P-342           	J-67            	J-438           	6696.609    	4           	150         	0           	Open  	;
 P-343           	J-368           	J-404           	1338.579    	6           	140         	0           	Open  	;
 P-344           	J-29            	J-330           	403.51      	6           	86.1445     	0           	Open  	;
 P-345           	J-197           	O-Pump-4        	468.45      	8           	128.0722    	0           	Open  	;
 P-346           	J-251           	J-234           	2009.619    	6           	140         	0           	Open  	;
 P-347           	J-89            	J-441           	3695.03     	4           	150         	0           	Open  	;
 P-348           	J-442           	J-1             	3563.469    	4           	150         	0           	Open  	;
 P-349           	J-282           	J-334           	3254.129    	6           	140         	0           	Open  	;
 P-35            	J-60            	J-61            	2941.969    	4           	140         	0           	Open  	;
 P-350           	J-326           	J-444           	2437.26     	4           	150         	0           	Open  	;
 P-351           	J-283           	J-445           	2235.31     	4           	140         	0           	Open  	;
 P-352           	J-109           	J-446           	3432.11     	4           	140         	0           	Open  	;
 P-353           	J-447           	J-356           	101.65      	6           	140         	0           	Open  	;
 P-354           	J-448           	J-449           	380.519     	8           	140         	0           	Open  	;
 P-355           	J-450           	J-451           	255.35      	6           	69.091      	0           	Open  	;
 P-356           	J-452           	I-RV-17         	9521.7      	4           	140         	0           	Open  	;
 P-357           	J-121           	J-132           	109.25      	8           	140         	0           	Open  	;
 P-358           	J-125           	J-194           	45.849      	6           	140         	0           	Open  	;
 P-359           	J-454           	J-455           	730.94      	4           	140         	0           	Open  	;
 P-36            	J-62            	J-63            	917.359     	3           	140         	0           	Open  	;
 P-360           	J-456           	J-457           	3727.77     	4           	140         	0           	Open  	;
 P-361           	J-434           	J-458           	2918.76     	4           	150         	0           	Open  	;
 P-362           	J-283           	J-10            	3217.179    	6           	140         	0           	Open  	;
 P-363           	J-449           	J-460           	432.059     	8           	140         	0           	Open  	;
 P-364           	J-280           	J-427           	157.699     	4           	150         	0           	Open  	;
 P-365           	J-461           	J-462           	4050.05     	4           	150         	0           	Open  	;
 P-366           	J-463           	J-273           	323.73      	3           	150         	0           	Open  	;
 P-367           	J-464           	I-RV-18         	11462.259   	4           	150         	0           	Open  	;
 P-368           	J-290           	J-466           	1095.569    	4           	140         	0           	Open  	;
 P-369           	J-351           	J-467           	716.469     	4           	140         	0           	Open  	;
 P-37            	J-64            	J-65            	1809.67     	6           	140         	0           	Open  	;
 P-370           	J-43            	J-400           	254.97      	6           	59.091      	0           	Open  	;
 P-371           	J-105           	J-470           	550.619     	4           	150         	0           	Open  	;
 P-372           	J-69            	I-Pump-4        	62.669      	8           	130.6237    	0           	Open  	;
 P-373           	J-120           	J-66            	1204.099    	4           	150         	0           	Open  	;
 P-374           	J-192           	J-191           	150.619     	2           	140         	0           	Open  	;
 P-375           	J-68            	J-118           	64.949      	6           	140         	0           	Open  	;
 P-376           	J-19            	J-368           	5013.129    	6           	140         	0           	Open  	;
 P-377           	J-86            	J-350           	768.919     	6           	140         	0           	Open  	;
 P-378           	J-473           	J-474           	3175.979    	2           	140         	0           	Open  	;
 P-379           	J-421           	J-117           	414.559     	6           	69.091      	0           	Open  	;
 P-38            	J-66            	J-67            	9096.94     	4           	150         	0           	Open  	;
 P-380           	J-40            	I-Pump-4        	2201.06     	6           	140         	0           	Open  	;
 P-381           	J-476           	J-382           	110.569     	8           	140         	0           	Open  	;
 P-382           	J-477           	J-478           	1201.05     	4           	140         	0           	Open  	;
 P-383           	J-101           	J-479           	2089.85     	4           	140         	0           	Open  	;
 P-384           	J-402           	J-480           	2384.5      	4           	140         	0           	Open  	;
 P-385           	J-186           	J-481           	3092.399    	3           	122.8135    	0           	Open  	;
 P-386           	J-482           	J-575           	2408.84     	8           	140         	0           	Open  	;
 P-387           	J-388           	J-201           	4722.31     	6           	122.8135    	0           	Open  	;
 P-388           	J-214           	J-32            	917.53      	3           	140         	0           	Open  	;
 P-389           	J-180           	J-484           	1110.51     	6           	140         	0           	Open  	;
 P-39            	J-68            	I-Pump-8        	179.46      	4           	140         	0           	Open  	;
 P-390           	J-349           	J-431           	293.829     	6           	140         	0           	Open  	;
 P-391           	J-335           	J-256           	432.359     	6           	150         	0           	Open  	;
 P-392           	J-64            	J-485           	2785.77     	3           	140         	0           	Open  	;
 P-393           	J-336           	J-486           	2038.28     	3           	140         	0           	Open  	;
 P-394           	O-RV-2          	J-434           	482.399     	4           	150         	0           	Open  	;
 P-395           	J-488           	O-RV-19         	419.17      	4           	140         	0           	Open  	;
 P-396           	J-406           	O-Pump-1        	1608.209    	12          	140         	0           	Open  	;
 P-397           	J-490           	O-Pump-12       	4520.779    	6           	150         	0           	Open  	;
 P-398           	J-491           	I-RV-1          	6293.979    	4           	150         	0           	Open  	;
 P-399           	J-396           	J-493           	759.619     	4           	150         	0           	Open  	;
 P-4             	J-7             	J-8             	3343.1      	6           	140         	0           	Open  	;
 P-40            	J-61            	J-64            	2313.57     	6           	140         	0           	Open  	;
 P-400           	J-494           	J-133           	1304.459    	4           	140         	0           	Open  	;
 P-401           	J-303           	J-461           	5394.49     	4           	150         	0           	Open  	;
 P-402           	J-495           	J-496           	4703.16     	2           	140         	0           	Open  	;
 P-403           	J-307           	J-497           	333.529     	2           	140         	0           	Open  	;
 P-404           	J-498           	J-499           	793.429     	4           	140         	0           	Open  	;
 P-405           	J-436           	I-RV-23         	1057.439    	2           	140         	0           	Open  	;
 P-406           	J-268           	J-501           	8121.6      	4           	150         	0           	Open  	;
 P-407           	J-502           	J-491           	7568.029    	4           	150         	0           	Open  	;
 P-408           	J-441           	J-502           	2050.36     	4           	150         	0           	Open  	;
 P-409           	J-502           	J-503           	8400.33     	4           	150         	0           	Open  	;
 P-41            	J-70            	J-71            	1175.719    	4           	120         	0           	Open  	;
 P-410           	J-504           	J-505           	1029.42     	3           	150         	0           	Open  	;
 P-411           	J-36            	J-463           	2672.199    	4           	141.8326    	0           	Open  	;
 P-412           	J-426           	J-507           	1016.7      	3           	150         	0           	Open  	;
 P-413           	J-508           	J-509           	3204.87     	4           	140         	0           	Open  	;
 P-414           	J-426           	J-57            	2032.339    	6           	150         	0           	Open  	;
 P-415           	J-436           	I-RV-24         	1959.17     	4           	140         	0           	Open  	;
 P-416           	J-154           	J-511           	3368.459    	4           	150         	0           	Open  	;
 P-417           	J-192           	J-512           	893.82      	4           	140         	0           	Open  	;
 P-418           	J-153           	J-513           	2331.879    	4           	140         	0           	Open  	;
 P-419           	J-380           	J-514           	5029.2      	4           	140         	0           	Open  	;
 P-42            	J-107           	J-215           	980.38      	8           	66.1358     	0           	Open  	;
 P-420           	J-74            	J-78a           	329.809     	6           	140         	0           	Open  	;
 P-421           	I-Pump-4        	J-517           	460.76      	6           	86.1445     	0           	Open  	;
 P-422           	J-518           	J-519           	1881.839    	6           	129.9604    	0           	Open  	;
 P-423           	J-520           	I-RV-15         	856.09      	2           	129.9604    	0           	Open  	;
 P-424           	J-522           	J-477           	911.26      	4           	140         	0           	Open  	;
 P-425           	J-523           	J-524           	615.89      	6           	129.9604    	0           	Open  	;
 P-426           	J-209           	J-464           	3292.209    	4           	150         	0           	Open  	;
 P-427           	J-525           	J-212           	294.339     	6           	140         	0           	Open  	;
 P-428           	J-441           	J-442           	4373.709    	4           	150         	0           	Open  	;
 P-429           	J-526           	J-527           	1085.219    	2           	128.0722    	0           	Open  	;
 P-43            	J-12            	I-RV-22         	6122.49     	4           	144.7356    	0           	Open  	;
 P-430           	J-528           	J-524           	905.869     	6           	129.9604    	0           	Open  	;
 P-431           	J-432           	J-300           	2449.679    	8           	140         	0           	Open  	;
 P-432           	J-83            	J-520           	161.49      	6           	129.9604    	0           	Open  	;
 P-433           	J-97            	J-399           	672.71      	6           	140         	0           	Open  	;
 P-434           	J-149           	O-Pump-4        	7379.649    	8           	140         	0           	Open  	;
 P-435           	J-207           	J-531           	5053.72     	6           	150         	0           	Open  	;
 P-436           	J-54            	I-RV-21         	6629.16     	3           	150         	0           	Open  	;
 P-437           	J-450           	J-270           	232.529     	6           	69.091      	0           	Open  	;
 P-438           	J-160           	J-450           	168.77      	6           	69.091      	0           	Open  	;
 P-439           	J-199           	J-129           	202.05      	6           	140         	0           	Open  	;
 P-44            	J-75            	J-76            	1497.449    	6           	140         	0           	Open  	;
 P-440           	J-247           	J-94            	1902.51     	6           	140         	0           	Open  	;
 P-441           	J-373           	J-533           	1555.54     	4           	140         	0           	Open  	;
 P-442           	J-254           	J-534           	1721.369    	4           	150         	0           	Open  	;
 P-443           	J-231           	J-327           	7838.37     	6           	150         	0           	Open  	;
 P-444           	J-243           	J-126           	1358.63     	6           	150         	0           	Open  	;
 P-445           	J-222           	J-535           	3419.219    	6           	140         	0           	Open  	;
 P-446           	J-536           	J-537           	9339.9      	4           	141.8326    	0           	Open  	;
 P-447           	J-504           	J-490           	6319.93     	6           	150         	0           	Open  	;
 P-448           	J-538           	J-539           	312.95      	2           	128.0722    	0           	Open  	;
 P-449           	J-245           	J-540           	1524.25     	3           	150         	0           	Open  	;
 P-45            	J-78a           	J-144           	1002.849    	8           	130.6237    	0           	Open  	;
 P-450           	J-266           	J-145           	1843.55     	6           	150         	0           	Open  	;
 P-451           	J-40            	J-516           	102.949     	6           	140         	0           	Open  	;
 P-452           	J-543           	J-313           	108.529     	6           	69.091      	0           	Open  	;
 P-453           	J-544           	J-348           	296.26      	6           	69.091      	0           	Open  	;
 P-454           	J-409           	J-545           	28.36       	6           	140         	0           	Open  	;
 P-455           	J-139           	J-63            	278.739     	8           	140         	0           	Open  	;
 P-456           	J-547           	J-78            	1581.91     	2           	130.6237    	0           	Open  	;
 P-457           	J-548           	J-528           	3059.209    	6           	129.9604    	0           	Open  	;
 P-458           	J-215           	J-218           	551.979     	8           	140         	0           	Open  	;
 P-459           	J-545           	J-551           	99.889      	6           	140         	0           	Open  	;
 P-46            	J-55            	J-79            	299.41      	4           	120         	0           	Open  	;
 P-460           	J-114           	J-229           	1613.829    	6           	140         	0           	Open  	;
 P-461           	J-520           	J-548           	3649.33     	6           	129.9604    	0           	Open  	;
 P-462           	J-521           	J-554           	258.25      	2           	129.9604    	0           	Open  	;
 P-463           	J-397           	J-544           	2133.239    	6           	140         	0           	Open  	;
 P-464           	J-548           	J-555           	822.719     	6           	129.9604    	0           	Open  	;
 P-465           	J-556           	J-60            	2047.619    	3           	140         	0           	Open  	;
 P-466           	J-331           	J-557           	9117        	6           	120         	0           	Open  	;
 P-467           	J-558           	J-355           	661.63      	6           	120         	0           	Open  	;
 P-468           	J-557           	J-559           	1205.78     	6           	120         	0           	Open  	;
 P-469           	J-106           	J-116           	120.769     	6           	66.1358     	0           	Open  	;
 P-47            	J-578           	J-346           	309.39      	4           	150         	0           	Open  	;
 P-470           	J-346           	I-RV-10         	1779.359    	6           	150         	0           	Open  	;
 P-471           	J-562           	J-563           	1088.16     	4           	140         	0           	Open  	;
 P-472           	J-130           	J-195           	39.52       	3           	140         	0           	Open  	;
 P-473           	J-165           	J-504           	5275.899    	6           	150         	0           	Open  	;
 P-474           	J-564           	J-39            	1473.369    	6           	129.9604    	0           	Open  	;
 P-475           	J-291           	J-15            	5133.959    	8           	140         	0           	Open  	;
 P-476           	J-565           	J-93            	2201.949    	6           	150         	0           	Open  	;
 P-477           	J-431           	J-447           	199.05      	6           	140         	0           	Open  	;
 P-478           	J-224           	J-566           	353.339     	2           	140         	0           	Open  	;
 P-479           	J-61            	J-559           	9245.44     	6           	120         	0           	Open  	;
 P-48            	J-15            	J-432           	1623.42     	8           	140         	0           	Open  	;
 P-480           	J-80            	J-265           	2899.649    	6           	150         	0           	Open  	;
 P-481           	J-220           	J-340           	2760.56     	6           	122.8135    	0           	Open  	;
 P-482           	J-568           	I-Pump-13       	6155.66     	6           	150         	0           	Open  	;
 P-483           	J-526           	J-33            	1508.099    	4           	128.0722    	0           	Open  	;
 P-484           	J-291           	J-384           	1560.17     	2           	140         	0           	Open  	;
 P-485           	J-411           	J-259           	705.049     	6           	59.091      	0           	Open  	;
 P-486           	J-84            	I-RV-16         	655.719     	2           	129.9604    	0           	Open  	;
 P-487           	J-498           	J-300           	708.57      	6           	140         	0           	Open  	;
 P-488           	J-91            	J-571           	530.09      	6           	69.091      	0           	Open  	;
 P-489           	I-Pump-7        	J-301           	975.7       	8           	140         	0           	Open  	;
 P-49            	J-83            	J-84            	675.429     	6           	129.9604    	0           	Open  	;
 P-490           	J-545           	J-305           	1059.829    	6           	140         	0           	Open  	;
 P-491           	J-574           	J-46            	3209.649    	4           	130.6237    	0           	Open  	;
 P-492           	J-575           	J-35            	1329        	4           	128.0722    	0           	Open  	;
 P-493           	J-270           	J-571           	215.55      	4           	69.091      	0           	Open  	;
 P-494           	J-303           	O-RV-20         	376.799     	6           	150         	0           	Open  	;
 P-495           	J-324           	J-169           	6866.06     	6           	150         	0           	Open  	;
 P-496           	J-53            	J-568           	9345.41     	6           	150         	0           	Open  	;
 P-497           	J-452           	J-435           	3630.629    	8           	140         	0           	Open  	;
 P-498           	J-437           	J-117           	99.05       	6           	69.091      	0           	Open  	;
 P-499           	J-208           	J-345           	4793.97     	6           	150         	0           	Open  	;
 P-5             	J-103           	J-11            	6024.259    	8           	140         	0           	Open  	;
 P-50            	T-5             	J-86            	304.619     	6           	140         	0           	Open  	;
 P-500           	J-280           	J-565           	6984.569    	6           	150         	0           	Open  	;
 P-501           	J-477           	J-316           	1428.9      	4           	140         	0           	Open  	;
 P-502           	J-150           	J-562           	1213.76     	8           	140         	0           	Open  	;
 P-503           	J-301           	J-577           	110.68      	8           	140         	0           	Open  	;
 P-504           	J-578           	J-332           	2171.719    	6           	150         	0           	Open  	;
 P-505           	J-579           	J-403           	1409.719    	4           	140         	0           	Open  	;
 P-506           	J-519           	J-523           	137.089     	6           	129.9604    	0           	Open  	;
 P-507           	J-580           	J-581           	207.35      	6           	140         	0           	Open  	;
 P-508           	J-185           	J-330           	3941.02     	6           	122.8135    	0           	Open  	;
 P-509           	J-582           	J-314           	395.94      	8           	140         	0           	Open  	;
 P-51            	J-72            	J-17            	1223.839    	8           	140         	0           	Open  	;
 P-510           	J-562           	J-583           	1866.119    	8           	140         	0           	Open  	;
 P-511           	J-341           	J-41            	59.15       	4           	140         	0           	Open  	;
 P-512           	J-200           	J-581           	112.059     	6           	140         	0           	Open  	;
 P-513           	J-518           	J-584           	927.289     	6           	129.9604    	0           	Open  	;
 P-514           	J-583           	J-585           	5547.919    	6           	140         	0           	Open  	;
 P-515           	J-150           	J-21            	5549.629    	4           	140         	0           	Open  	;
 P-516           	J-582           	J-586           	459.45      	8           	140         	0           	Open  	;
 P-517           	J-200           	J-218           	380.649     	6           	140         	0           	Open  	;
 P-518           	J-155           	J-249           	374.41      	6           	140         	0           	Open  	;
 P-519           	J-587           	J-98            	2400.659    	8           	140         	0           	Open  	;
 P-52            	J-57            	J-87            	1825.76     	6           	150         	0           	Open  	;
 P-520           	J-111           	J-452           	231.83      	8           	140         	0           	Open  	;
 P-521           	J-588           	J-589           	657.739     	4           	144.7356    	0           	Open  	;
 P-522           	J-161           	J-297           	71.819      	6           	140         	0           	Open  	;
 P-523           	J-219           	J-307           	2798.83     	2           	140         	0           	Open  	;
 P-524           	J-214           	J-27            	453.75      	6           	128.0722    	0           	Open  	;
 P-525           	J-592           	J-143           	6324.75     	4           	140         	0           	Open  	;
 P-526           	J-214           	J-593           	183.039     	4           	128.0722    	0           	Open  	;
 P-527           	J-279           	J-358           	3001.949    	6           	150         	0           	Open  	;
 P-528           	J-362           	J-456           	1113.27     	4           	140         	0           	Open  	;
 P-529           	J-551           	J-586           	1299.42     	8           	140         	0           	Open  	;
 P-53            	J-12            	J-15            	118.919     	4           	144.7356    	0           	Open  	;
 P-530           	J-199           	J-141           	1977.689    	8           	140         	0           	Open  	;
 P-531           	J-571           	J-407           	97.51       	4           	69.091      	0           	Open  	;
 P-532           	J-163           	J-181           	876.479     	3           	122.8135    	0           	Open  	;
 P-533           	J-314           	J-423           	75.239      	8           	140         	0           	Open  	;
 P-534           	J-122           	J-181           	355.54      	3           	122.8135    	0           	Open  	;
 P-535           	J-85            	J-561           	2143.699    	8           	130.6237    	0           	Open  	;
 P-536           	J-337           	J-377           	634.619     	4           	140         	0           	Open  	;
 P-537           	J-298           	J-418           	652.4       	6           	131.3043    	0           	Open  	;
 P-538           	J-249           	J-94            	767.5       	6           	140         	0           	Open  	;
 P-539           	T-8             	J-80            	514.46      	8           	150         	0           	Open  	;
 P-54            	J-90            	J-91            	90.339      	6           	69.091      	0           	Open  	;
 P-540           	J-585           	J-508           	19.62       	6           	140         	0           	Open  	;
 P-541           	J-147           	J-596           	1205.099    	4           	140         	0           	Open  	;
 P-542           	J-349           	J-597           	155.5       	6           	140         	0           	Open  	;
 P-543           	J-240           	J-180           	737.33      	6           	140         	0           	Open  	;
 P-544           	J-315           	J-598           	53.439      	6           	131.3043    	0           	Open  	;
 P-545           	J-30            	J-598           	113.769     	6           	131.3043    	0           	Open  	;
 P-546           	J-335           	J-344           	5878.87     	6           	150         	0           	Open  	;
 P-547           	J-449           	O-RV-14         	237.88      	8           	140         	0           	Open  	;
 P-548           	J-42            	J-587           	334.66      	8           	140         	0           	Open  	;
 P-549           	J-157           	J-5             	227.559     	8           	140         	0           	Open  	;
 P-55            	J-92            	J-93            	5277.419    	6           	150         	0           	Open  	;
 P-550           	J-98            	J-599           	43.02       	8           	140         	0           	Open  	;
 P-551           	J-178           	J-429           	12731.429   	8           	140         	0           	Open  	;
 P-552           	J-600           	I-RV-11         	791.94      	8           	140         	0           	Open  	;
 P-553           	J-583           	J-290           	5192.52     	8           	140         	0           	Open  	;
 P-554           	J-600           	J-498           	8040.709    	6           	140         	0           	Open  	;
 P-555           	J-596           	J-601           	1842.699    	4           	140         	0           	Open  	;
 P-556           	J-596           	J-602           	4470.729    	4           	140         	0           	Open  	;
 P-557           	J-63            	J-215           	325.45      	8           	140         	0           	Open  	;
 P-558           	J-313           	J-159           	110.55      	6           	69.091      	0           	Open  	;
 P-559           	J-586           	J-476           	112.879     	8           	140         	0           	Open  	;
 P-56            	J-94            	J-95            	2365.86     	3           	140         	0           	Open  	;
 P-560           	J-508           	J-251           	4610.24     	6           	140         	0           	Open  	;
 P-561           	J-603           	J-143           	1625.65     	4           	140         	0           	Open  	;
 P-562           	J-599           	J-495           	1202.579    	8           	140         	0           	Open  	;
 P-563           	J-604           	J-454           	3936.889    	8           	140         	0           	Open  	;
 P-564           	J-605           	J-341           	2962.1      	4           	140         	0           	Open  	;
 P-565           	J-473           	J-604           	439.059     	4           	140         	0           	Open  	;
 P-566           	J-101           	J-606           	2087.639    	4           	140         	0           	Open  	;
 P-567           	J-255           	J-21            	1039.55     	4           	140         	0           	Open  	;
 P-568           	J-608           	J-90            	621.419     	4           	128.0722    	0           	Open  	;
 P-569           	J-581           	J-610           	291.44      	6           	140         	0           	Open  	;
 P-57            	J-96            	J-45            	37.79       	6           	140         	0           	Open  	;
 P-570           	I-Pump-6        	J-600           	6992.37     	8           	140         	0           	Open  	;
 P-571           	T-4             	J-476           	594.38      	6           	140         	0           	Open  	;
 P-572           	J-598           	J-170           	8700.299    	6           	131.3043    	0           	Open  	;
 P-573           	J-551           	J-219           	148.509     	6           	140         	0           	Open  	;
 P-574           	J-227           	J-612           	630.14      	3           	140         	0           	Open  	;
 P-575           	J-495           	J-26            	4225.879    	8           	140         	0           	Open  	;
 P-576           	J-456           	J-613           	4679.22     	4           	140         	0           	Open  	;
 P-577           	J-227           	J-614           	559.84      	3           	140         	0           	Open  	;
 P-578           	J-615           	J-604           	658.77      	8           	140         	0           	Open  	;
 P-579           	R-1             	I-Pump-1        	657.58      	8           	140         	0           	Open  	;
 P-58            	J-98            	J-99            	1673.869    	4           	140         	0           	Open  	;
 P-580           	J-615           	J-375           	1578.329    	4           	140         	0           	Open  	;
 P-581           	J-380           	J-615           	7204.529    	8           	140         	0           	Open  	;
 P-582           	J-454           	J-111           	2226.389    	8           	140         	0           	Open  	;
 P-583           	J-100           	J-617           	1529.219    	2           	140         	0           	Open  	;
 P-584           	J-375           	J-373           	7104.169    	4           	140         	0           	Open  	;
 P-585           	J-613           	J-473           	26.44       	4           	140         	0           	Open  	;
 P-586           	J-129           	J-618           	345.359     	6           	140         	0           	Open  	;
 P-587           	J-132           	J-619           	569.27      	4           	140         	0           	Open  	;
 P-588           	J-577           	J-380           	3489.429    	8           	140         	0           	Open  	;
 P-589           	J-531           	J-262           	4027.28     	6           	150         	0           	Open  	;
 P-59            	J-100           	J-101           	1319.339    	4           	140         	0           	Open  	;
 P-590           	J-28            	J-25            	1861.67     	2           	140         	0           	Open  	;
 P-591           	J-33            	J-576           	4019.58     	4           	128.0722    	0           	Open  	;
 P-592           	I-Pump-12       	J-169           	18252.619   	6           	150         	0           	Open  	;
 P-593           	J-37            	J-19            	3850.82     	6           	140         	0           	Open  	;
 P-594           	J-35            	J-33            	1346.52     	4           	128.0722    	0           	Open  	;
 P-595           	J-410           	J-216           	32.58       	6           	128.0722    	0           	Open  	;
 P-596           	J-275           	J-188           	234.559     	6           	150         	0           	Open  	;
 P-597           	J-463           	I-RV-28         	11578.36    	4           	141.8326    	0           	Open  	;
 P-598           	J-283           	O-Pump-11       	4088.02     	6           	140         	0           	Open  	;
 P-599           	J-536           	J-506           	5065.39     	4           	141.8326    	0           	Open  	;
 P-6             	J-198           	O-Pump-6        	599.979     	8           	140         	0           	Open  	;
 P-60            	J-102           	J-103           	846.08      	1           	140         	0           	Open  	;
 P-600           	J-552           	I-Pump-2        	405.369     	6           	59.091      	0           	Open  	;
 P-601           	J-575           	J-158           	3588        	8           	140         	0           	Open  	;
 P-602           	J-588           	J-276           	1903.79     	4           	144.7356    	0           	Open  	;
 P-603           	J-162           	J-148           	231.13      	8           	130.6237    	0           	Open  	;
 P-604           	O-RV-3          	J-235           	824.95      	4           	140         	0           	Open  	;
 P-605           	O-Pump-5        	J-264           	9279.769    	6           	150         	0           	Open  	;
 P-606           	J-217           	J-538           	5.369       	6           	128.0722    	0           	Open  	;
 P-607           	J-538           	J-229           	30.639      	6           	128.0722    	0           	Open  	;
 P-608           	J-38            	J-217           	191.699     	6           	140         	0           	Open  	;
 P-609           	J-39            	J-248           	151.61      	6           	129.9604    	0           	Open  	;
 P-61            	J-104           	J-105           	1835.31     	4           	150         	0           	Open  	;
 P-610           	J-40            	J-542           	3661.31     	6           	140         	0           	Open  	;
 P-611           	J-469           	J-419           	240.19      	6           	140         	0           	Open  	;
 P-612           	J-408           	J-43            	17.079      	6           	59.091      	0           	Open  	;
 P-613           	J-44            	J-96            	134.979     	6           	140         	0           	Open  	;
 P-614           	J-45            	J-74            	161.88      	6           	140         	0           	Open  	;
 P-615           	J-516           	J-74            	888.669     	6           	140         	0           	Open  	;
 P-616           	J-113           	J-45            	6.829       	6           	140         	0           	Open  	;
 P-617           	J-78a           	J-69            	3323.87     	8           	130.6237    	0           	Open  	;
 P-618           	J-46            	J-406           	6717.85     	12          	140         	0           	Open  	;
 P-619           	J-78            	J-46            	618.63      	12          	140         	0           	Open  	;
 P-62            	J-38            	J-39            	6165.66     	6           	140         	0           	Open  	;
 P-620           	J-82            	J-292           	1184.839    	12          	140         	0           	Open  	;
 P-621           	J-119           	J-82            	21.879      	12          	140         	0           	Open  	;
 P-622           	J-85            	J-82            	106.4       	12          	140         	0           	Open  	;
 P-623           	J-530           	J-97            	2262.09     	4           	128.0722    	0           	Open  	;
 P-624           	J-88            	J-47            	3595.3      	8           	130.6237    	0           	Open  	;
 P-625           	J-88            	J-106           	107.269     	8           	130.6237    	0           	Open  	;
 P-626           	J-107           	J-399           	965.369     	8           	140         	0           	Open  	;
 P-627           	J-97            	J-47            	314.72      	6           	140         	0           	Open  	;
 P-628           	J-117           	J-544           	32.7        	6           	69.091      	0           	Open  	;
 P-629           	J-144           	J-116           	108.3       	6           	140         	0           	Open  	;
 P-63            	J-108           	J-109           	3974.149    	6           	140         	0           	Open  	;
 P-630           	J-199           	J-73            	312.859     	8           	140         	0           	Open  	;
 P-631           	J-20            	O-Pump-8        	1051.04     	10          	140         	0           	Open  	;
 P-632           	J-183           	J-27            	555.619     	6           	86.1445     	0           	Open  	;
 P-633           	J-191           	J-472           	1365.839    	2           	140         	0           	Open  	;
 P-634           	J-118           	J-422           	31.77       	6           	140         	0           	Open  	;
 P-635           	J-322           	O-Pump-3        	1211.15     	6           	140         	0           	Open  	;
 P-636           	I-Pump-3        	R-2             	1344.099    	6           	140         	0           	Open  	;
 P-637           	O-RV-4          	J-166           	768.539     	4           	150         	0           	Open  	;
 P-638           	I-RV-5          	J-236           	28603.279   	6           	150         	0           	Open  	;
 P-639           	O-RV-6          	J-154           	428.059     	4           	150         	0           	Open  	;
 P-64            	J-110           	J-111           	3002.78     	2           	140         	0           	Open  	;
 P-640           	I-RV-7          	J-87            	7305.149    	4           	150         	0           	Open  	;
 P-641           	O-RV-8          	J-395           	608.5       	4           	150         	0           	Open  	;
 P-642           	I-RV-9          	J-231           	3949.649    	6           	150         	0           	Open  	;
 P-643           	O-RV-10         	J-414           	478.75      	6           	150         	0           	Open  	;
 P-644           	O-RV-11         	J-152           	341.16      	8           	140         	0           	Open  	;
 P-645           	O-RV-12         	J-230           	1640.56     	3           	140         	0           	Open  	;
 P-646           	O-RV-13         	J-221           	2913.419    	6           	122.8135    	0           	Open  	;
 P-647           	I-RV-14         	J-371           	65.37       	8           	140         	0           	Open  	;
 P-648           	O-RV-15         	J-521           	211.639     	2           	129.9604    	0           	Open  	;
 P-649           	O-RV-16         	J-570           	337.76      	2           	129.9604    	0           	Open  	;
 P-65            	O-RV-1          	J-492           	784.59      	4           	150         	0           	Open  	;
 P-650           	O-RV-17         	J-453           	234.889     	4           	140         	0           	Open  	;
 P-651           	O-RV-18         	J-465           	176.46      	4           	150         	0           	Open  	;
 P-652           	I-RV-19         	J-301           	1950.13     	4           	140         	0           	Open  	;
 P-653           	I-RV-20         	J-208           	9710.33     	6           	150         	0           	Open  	;
 P-654           	O-RV-21         	J-532           	329.94      	3           	150         	0           	Open  	;
 P-655           	O-RV-22         	J-591           	598.729     	4           	144.7356    	0           	Open  	;
 P-656           	O-RV-23         	J-500           	581.39      	2           	140         	0           	Open  	;
 P-657           	O-RV-24         	J-510           	779.739     	4           	140         	0           	Open  	;
 P-658           	O-Pump-13       	J-207           	3439.149    	6           	150         	0           	Open  	;
 P-659           	O-RV-25         	J-2             	1414.52     	4           	150         	0           	Open  	;
 P-66            	J-113           	J-118           	1167.599    	2           	59.091      	0           	Open  	;
 P-660           	O-RV-26         	J-252           	831.559     	4           	140         	0           	Open  	;
 P-661           	O-RV-27         	J-394           	1037.969    	4           	140         	0           	Open  	;
 P-662           	O-RV-28         	J-536           	165.08      	4           	141.8326    	0           	Open  	;
 P-67            	J-115           	J-144           	273.299     	6           	140         	0           	Open  	;
 P-68            	J-45            	J-191           	723.2       	2           	59.091      	0           	Open  	;
 P-69            	J-119           	J-120           	4468.439    	4           	150         	0           	Open  	;
 P-7             	J-13            	J-14            	4655.209    	8           	140         	0           	Open  	;
 P-70            	J-121           	J-106           	339.13      	6           	66.1358     	0           	Open  	;
 P-71            	J-122           	J-123           	1494.5      	3           	122.8135    	0           	Open  	;
 P-72            	J-108           	J-124           	8443.059    	4           	140         	0           	Open  	;
 P-73            	J-65            	J-125           	5076.339    	6           	140         	0           	Open  	;
 P-74            	J-126           	J-127           	6211.759    	6           	150         	0           	Open  	;
 P-75            	J-128           	J-129           	461.75      	6           	140         	0           	Open  	;
 P-76            	J-125           	J-130           	536.95      	6           	140         	0           	Open  	;
 P-77            	J-79            	J-70            	6058.97     	4           	120         	0           	Open  	;
 P-78            	J-131           	J-90            	1102.829    	4           	59.091      	0           	Open  	;
 P-79            	I-Pump-8        	J-132           	298.88      	4           	140         	0           	Open  	;
 P-8             	J-11            	J-198           	323.029     	8           	140         	0           	Open  	;
 P-80            	J-133           	J-134           	785.01      	6           	140         	0           	Open  	;
 P-81            	J-75            	J-135           	81.93       	6           	140         	0           	Open  	;
 P-82            	J-136           	J-137           	994.369     	4           	120         	0           	Open  	;
 P-83            	J-138           	J-139           	921.479     	3           	140         	0           	Open  	;
 P-84            	J-109           	J-140           	10385.419   	6           	140         	0           	Open  	;
 P-85            	J-141           	J-138           	117.98      	3           	140         	0           	Open  	;
 P-86            	J-70            	J-142           	4131.049    	4           	120         	0           	Open  	;
 P-87            	J-143           	J-8             	3012.699    	6           	140         	0           	Open  	;
 P-88            	J-135           	J-29            	4620.069    	6           	140         	0           	Open  	;
 P-89            	J-5             	J-371           	818.96      	8           	140         	0           	Open  	;
 P-9             	J-16            	J-17            	802.429     	8           	140         	0           	Open  	;
 P-90            	J-146           	J-75            	706.359     	6           	140         	0           	Open  	;
 P-91            	J-147           	J-148           	3705.879    	8           	140         	0           	Open  	;
 P-92            	J-149           	J-146           	74.91       	6           	140         	0           	Open  	;
 P-93            	J-150           	J-9             	6072.359    	8           	140         	0           	Open  	;
 P-94            	J-76            	J-151           	1005.859    	2           	140         	0           	Open  	;
 P-95            	J-152           	J-153           	829.77      	4           	140         	0           	Open  	;
 P-96            	J-87            	I-RV-6          	9333.73     	4           	150         	0           	Open  	;
 P-97            	J-155           	J-156           	879.289     	4           	140         	0           	Open  	;
 P-98            	J-157           	J-158           	143.929     	6           	140         	0           	Open  	;
 P-99            	J-134           	J-108           	6599.009    	6           	140         	0           	Open  	;

[PUMPS]
;ID              	Node1           	Node2           	Parameters
 ~@Pump-1        	I-Pump-1        	O-Pump-1        	POWER 50	;
 ~@Pump-10       	I-Pump-10       	O-Pump-10       	POWER 19	;
 ~@Pump-11       	I-Pump-11       	O-Pump-11       	POWER 8	;
 ~@Pump-12       	I-Pump-12       	O-Pump-12       	POWER 10	;
 ~@Pump-13       	I-Pump-13       	O-Pump-13       	POWER 1	;
 ~@Pump-2        	I-Pump-2        	O-Pump-2        	POWER 25	;
 ~@Pump-3        	I-Pump-3        	O-Pump-3        	POWER 25	;
 ~@Pump-4        	I-Pump-4        	O-Pump-4        	POWER 40	;
 ~@Pump-5        	I-Pump-5        	O-Pump-5        	POWER 60	;
 ~@Pump-6        	I-Pump-6        	O-Pump-6        	POWER 15	;
 ~@Pump-7        	I-Pump-7        	O-Pump-7        	POWER 4	;
 ~@Pump-8        	I-Pump-8        	O-Pump-8        	POWER 40	;
 ~@Pump-9        	I-Pump-9        	O-Pump-9        	POWER 52	;

[VALVES]
;ID              	Node1           	Node2           	Diameter    	Type	Setting     	MinorLoss   
 ~@RV-1          	I-RV-1          	O-RV-1          	1000        	PRV 	89.99       	0           	;
 ~@RV-10         	I-RV-10         	O-RV-10         	1000        	PRV 	74.99       	0           	;
 ~@RV-11         	I-RV-11         	O-RV-11         	1000        	PRV 	119.99      	0           	;
 ~@RV-12         	I-RV-12         	O-RV-12         	1000        	PRV 	79.99       	0           	;
 ~@RV-13         	I-RV-13         	O-RV-13         	1000        	PRV 	90          	0           	;
 ~@RV-14         	I-RV-14         	O-RV-14         	1000        	PRV 	74.99       	0           	;
 ~@RV-15         	I-RV-15         	O-RV-15         	1000        	PRV 	69.99       	0           	;
 ~@RV-16         	I-RV-16         	O-RV-16         	1000        	PRV 	79.99       	0           	;
 ~@RV-17         	I-RV-17         	O-RV-17         	1000        	PRV 	50          	0           	;
 ~@RV-18         	I-RV-18         	O-RV-18         	8           	PRV 	60          	0           	;
 ~@RV-19         	I-RV-19         	O-RV-19         	1000        	PRV 	69.99       	0           	;
 ~@RV-2          	I-RV-2          	O-RV-2          	1000        	PRV 	89.99       	0           	;
 ~@RV-20         	I-RV-20         	O-RV-20         	1000        	PRV 	99.99       	0           	;
 ~@RV-21         	I-RV-21         	O-RV-21         	1000        	PRV 	60          	0           	;
 ~@RV-22         	I-RV-22         	O-RV-22         	1000        	PRV 	50          	0           	;
 ~@RV-23         	I-RV-23         	O-RV-23         	1000        	PRV 	55          	0           	;
 ~@RV-24         	I-RV-24         	O-RV-24         	1000        	PRV 	55          	0           	;
 ~@RV-25         	I-RV-25         	O-RV-25         	1000        	PRV 	65          	0           	;
 ~@RV-26         	I-RV-26         	O-RV-26         	1000        	PRV 	60          	0           	;
 ~@RV-28         	I-RV-28         	O-RV-28         	1000        	PRV 	85          	0           	;
 ~@RV-3          	I-RV-3          	O-RV-3          	1000        	PRV 	89.99       	0           	;
 ~@RV-4          	I-RV-4          	O-RV-4          	1000        	PRV 	89.99       	0           	;
 ~@RV-5          	I-RV-5          	O-RV-5          	1000        	PRV 	110         	0           	;
 ~@RV-6          	I-RV-6          	O-RV-6          	1000        	PRV 	89.99       	0           	;
 ~@RV-7          	I-RV-7          	O-RV-7          	1000        	PRV 	145         	0           	;
 ~@RV-8          	I-RV-8          	O-RV-8          	1000        	PRV 	69.99       	0           	;
 ~@RV-9          	I-RV-9          	O-RV-9          	1000        	PRV 	69.99       	0           	;
 RV-27           	I-RV-27         	O-RV-27         	12          	PRV 	55          	0           	;

[TAGS]

[DEMANDS]
;Junction        	Demand      	Pattern         	Category

[STATUS]
;ID              	Status/Setting
 ~@Pump-1        	Closed

[PATTERNS]
;ID              	Multipliers
;
 11              	0.33        	0.25        	0.209       	0.209       	0.259       	0.36        
 11              	0.529       	0.91        	1.2         	1.299       	1.34        	1.34        
 11              	1.32        	1.269       	1.25        	1.25        	1.279       	1.37        
 11              	1.519       	1.7         	1.75        	1.669       	0.899       	0.479       
;
 ENRG1           	1           	1           	1           	1           	1           	1           
 ENRG1           	1           	1           	1           	1           	1           	1           
 ENRG1           	1           	1           	1           	1           	1           	1           
 ENRG1           	1           	1           	1           	1           	1           

[CURVES]
;ID              	X-Value     	Y-Value

[CONTROLS]
LINK ~@Pump-3  OPEN  IF NODE T-1           BELOW  68.189 
LINK ~@Pump-3 1  IF NODE T-1               BELOW  68.189 
LINK ~@Pump-3  CLOSED  IF NODE T-1         ABOVE  86.189 
LINK ~@Pump-1  OPEN  IF NODE T-4           BELOW  118.026 
LINK ~@Pump-1  CLOSED  IF NODE T-4         ABOVE  129.026 
LINK ~@Pump-2  OPEN  IF NODE T-5           BELOW  121.617 
LINK ~@Pump-2 0.75  IF NODE T-5            BELOW  121.617 
LINK ~@Pump-2  CLOSED  IF NODE T-5         ABOVE  140.617 
LINK ~@Pump-8  OPEN  IF NODE T-3           BELOW  114.809 
LINK ~@Pump-8  CLOSED  IF NODE T-3         ABOVE  140.809 
LINK ~@Pump-7  OPEN  IF NODE T-2           BELOW  46.208 
LINK ~@Pump-7  CLOSED  IF NODE T-2         ABOVE  62.208 
LINK ~@Pump-6  OPEN  IF NODE T-7           BELOW  26.897 
LINK ~@Pump-6  CLOSED  IF NODE T-7         ABOVE  52.897 
LINK ~@Pump-9  OPEN  IF NODE T-6           BELOW  17.689 
LINK ~@Pump-9  CLOSED  IF NODE T-6         ABOVE  36.689 


[RULES]


[ENERGY]
 Global Efficiency  	75
 Global Price       	0
 Global Pattern     	ENRG1
 Demand Charge      	0

[EMITTERS]
;Junction        	Coefficient

[QUALITY]
;Node            	InitQual

[SOURCES]
;Node            	Type        	Quality     	Pattern

[REACTIONS]
;Type     	Pipe/Tank       	Coefficient


[REACTIONS]
 Order Bulk            	0
 Order Tank            	0
 Order Wall            	0
 Global Bulk           	0
 Global Wall           	0
 Limiting Potential    	0
 Roughness Correlation 	0

[MIXING]
;Tank            	Model

[TIMES]
 Duration           	0:00 
 Hydraulic Timestep 	0:01 
 Quality Timestep   	0:01 
 Pattern Timestep   	1:00 
 Pattern Start      	0:00 
 Report Timestep    	1:00 
 Report Start       	0:00 
 Start ClockTime    	12 am
 Statistic          	NONE

[REPORT]
 Status             	Full
 Summary            	No
 Page               	0

[OPTIONS]
 Units              	GPM
 Headloss           	H-W
 Specific Gravity   	1
 Viscosity          	1
 Trials             	100
 Accuracy           	0.0001
 CHECKFREQ          	2
 MAXCHECK           	10
 DAMPLIMIT          	0
 Unbalanced         	Continue 10
 Pattern            	11
 Demand Multiplier  	1.0
 Emitter Exponent   	0.5
 Quality            	Chemical mg/L
 Diffusivity        	0.05
 Tolerance          	0.0001

[COORDINATES]
;Node            	X-Coord           	Y-Coord
J-1             	5517100.570       	3638786.000       
J-10            	5533439.080       	3558186.000       
J-100           	5509007.490       	3567729.000       
J-101           	5508476.540       	3566532.000       
J-102           	5533574.180       	3573533.000       
J-103           	5534169.610       	3572932.000       
J-104           	5530458.310       	3544307.000       
J-105           	5528798.130       	3543714.000       
J-106           	5501609.590       	3585671.000       
J-107           	5502544.160       	3589084.000       
J-108           	5489205.850       	3552320.000       
J-109           	5487557.150       	3548839.000       
J-11            	5529954.230       	3569178.000       
J-110           	5515711.870       	3613243.000       
J-111           	5518161.720       	3612127.000       
J-113           	5501159.760       	3584464.000       
J-114           	5498274.920       	3585601.000       
J-115           	5501213.740       	3585726.000       
J-116           	5501558.040       	3585562.000       
J-117           	5500608.200       	3585754.000       
J-118           	5501711.000       	3585494.000       
J-119           	5504336.650       	3590254.000       
J-12            	5520077.720       	3563068.000       
J-120           	5506806.290       	3592924.000       
J-121           	5501762.940       	3585973.000       
J-122           	5497749.460       	3573780.000       
J-123           	5498955.230       	3572897.000       
J-124           	5482085.500       	3552353.000       
J-125           	5557670.330       	3589454.000       
J-126           	5549542.450       	3620149.000       
J-127           	5545715.150       	3622565.000       
J-128           	5500271.730       	3588511.000       
J-129           	5500656.260       	3588445.000       
J-13            	5497678.320       	3595558.000       
J-130           	5558077.740       	3589803.000       
J-131           	5500888.280       	3586450.000       
J-132           	5501868.710       	3585946.000       
J-133           	5495049.870       	3556282.000       
J-134           	5494336.420       	3555962.000       
J-135           	5503231.250       	3576359.000       
J-136           	5560247.190       	3566676.000       
J-137           	5560992.760       	3566591.000       
J-138           	5502171.760       	3589612.000       
J-139           	5502884.640       	3590175.000       
J-14            	5493483.490       	3595407.000       
J-140           	5485262.470       	3539234.000       
J-141           	5502234.770       	3589512.000       
J-142           	5562266.620       	3574242.000       
J-143           	5510026.860       	3578816.000       
J-144           	5501460.330       	3585608.000       
J-145           	5543171.080       	3548311.000       
J-146           	5503856.120       	3575979.000       
J-147           	5512756.950       	3609999.000       
J-148           	5516203.080       	3608981.000       
J-149           	5503904.110       	3576036.000       
J-15            	5520166.010       	3562988.000       
J-150           	5509537.710       	3572656.000       
J-151           	5502411.130       	3574816.000       
J-152           	5529494.370       	3564857.000       
J-153           	5530318.680       	3564815.000       
J-154           	5514354.450       	3537737.000       
J-155           	5499226.720       	3588421.000       
J-156           	5499960.850       	3588027.000       
J-157           	5498803.610       	3580062.000       
J-158           	5498865.840       	3580191.000       
J-159           	5501446.230       	3586754.000       
J-16            	5503363.240       	3591700.000       
J-160           	5501282.320       	3586366.000       
J-161           	5473924.910       	3564230.000       
J-162           	5516226.300       	3608751.000       
J-163           	5497153.570       	3574265.000       
J-164           	5495030.520       	3578956.000       
J-165           	5528456.050       	3582758.000       
J-166           	5527157.200       	3585405.000       
J-167           	5555359.280       	3620986.000       
J-168           	5556227.110       	3623395.000       
J-169           	5543958.650       	3604913.000       
J-17            	5503363.190       	3590934.000       
J-170           	5476661.140       	3565794.000       
J-171           	5475717.970       	3568282.000       
J-173           	5561411.080       	3607268.000       
J-174           	5502825.010       	3570541.000       
J-175           	5501851.340       	3570049.000       
J-176           	5494330.700       	3574318.000       
J-177           	5493313.280       	3577727.000       
J-178           	5536214.360       	3573246.000       
J-179           	5500619.140       	3584007.000       
J-18            	5502758.690       	3566026.000       
J-180           	5500385.480       	3582747.000       
J-181           	5497454.740       	3573585.000       
J-182           	5497239.760       	3572531.000       
J-183           	5500420.230       	3581082.000       
J-184           	5506038.570       	3586967.000       
J-185           	5498547.750       	3575681.000       
J-186           	5499017.810       	3575564.000       
J-187           	5534810.520       	3612335.000       
J-188           	5535572.650       	3612867.000       
J-189           	5560237.700       	3566715.000       
J-19            	5501080.360       	3562187.000       
J-190           	5555013.240       	3563987.000       
J-191           	5501080.000       	3583749.000       
J-192           	5501229.740       	3583765.000       
J-193           	5486891.240       	3586775.000       
J-194           	5557714.340       	3589441.000       
J-195           	5558110.760       	3589781.000       
J-196           	5499765.080       	3581361.000       
J-197           	5499879.550       	3581458.000       
J-198           	5529650.500       	3569068.000       
J-199           	5500809.060       	3588313.000       
J-2             	5509656.220       	3635551.000       
J-20            	5502647.420       	3586164.000       
J-200           	5503542.390       	3590236.000       
J-201           	5493419.480       	3570099.000       
J-202           	5494496.410       	3570532.000       
J-203           	5520880.570       	3532086.000       
J-204           	5519815.740       	3536821.000       
J-205           	5567020.610       	3568855.000       
J-206           	5537826.730       	3613661.000       
J-207           	5537816.770       	3613985.000       
J-208           	5539930.610       	3630480.000       
J-209           	5542861.190       	3631204.000       
J-21            	5509043.850       	3567790.000       
J-210           	5482647.480       	3588226.000       
J-211           	5504010.660       	3568305.000       
J-212           	5499144.690       	3582772.000       
J-213           	5521333.860       	3544146.000       
J-214           	5500823.800       	3580619.000       
J-215           	5503284.260       	3589724.000       
J-216           	5497710.640       	3586973.000       
J-217           	5497410.430       	3586743.000       
J-218           	5503789.460       	3589947.000       
J-219           	5499315.620       	3587822.000       
J-22            	5512410.860       	3627096.000       
J-220           	5493400.360       	3574475.000       
J-221           	5483634.050       	3579209.000       
J-222           	5561883.720       	3590320.000       
J-223           	5557495.610       	3589315.000       
J-224           	5556805.680       	3589037.000       
J-226           	5500853.210       	3585758.000       
J-227           	5502075.220       	3589736.000       
J-228           	5498392.260       	3585292.000       
J-229           	5497445.830       	3586736.000       
J-23            	5524801.360       	3633621.000       
J-230           	5536138.240       	3567370.000       
J-231           	5543899.840       	3521946.000       
J-232           	5541588.130       	3520047.000       
J-233           	5531792.820       	3548120.000       
J-234           	5523458.750       	3575545.000       
J-235           	5525042.090       	3574498.000       
J-236           	5534320.380       	3611072.000       
J-237           	5521984.800       	3544592.000       
J-239           	5499595.950       	3582722.000       
J-24            	5503413.690       	3591001.000       
J-240           	5499671.970       	3582682.000       
J-241           	5482971.540       	3567246.000       
J-242           	5475297.210       	3555215.000       
J-243           	5550741.870       	3620370.000       
J-244           	5497531.410       	3594576.000       
J-245           	5553564.750       	3620973.000       
J-246           	5496756.690       	3588165.000       
J-247           	5497961.850       	3587786.000       
J-248           	5492679.090       	3587134.000       
J-249           	5499041.460       	3588746.000       
J-25            	5505360.210       	3592057.000       
J-250           	5498642.240       	3588273.000       
J-251           	5521991.800       	3574206.000       
J-252           	5524549.670       	3570349.000       
J-253           	5499485.450       	3582756.000       
J-254           	5511962.950       	3569331.000       
J-255           	5509957.230       	3568235.000       
J-256           	5526617.690       	3549474.000       
J-257           	5524717.080       	3546746.000       
J-258           	5498730.340       	3586934.000       
J-259           	5498728.150       	3586620.000       
J-26            	5526143.210       	3622933.000       
J-260           	5518016.820       	3649008.000       
J-261           	5520357.020       	3652840.000       
J-262           	5537556.040       	3618853.000       
J-263           	5541551.640       	3550712.000       
J-264           	5542693.070       	3551885.000       
J-265           	5543632.130       	3545171.000       
J-266           	5543694.020       	3546931.000       
J-267           	5524373.170       	3642338.000       
J-268           	5521787.760       	3644489.000       
J-269           	5526507.280       	3638343.000       
J-27            	5500379.280       	3580528.000       
J-270           	5500881.050       	3586371.000       
J-271           	5540770.070       	3583914.000       
J-272           	5541808.630       	3582947.000       
J-273           	5505775.230       	3556827.000       
J-274           	5504774.880       	3557025.000       
J-275           	5535338.330       	3612864.000       
J-276           	5533679.030       	3612238.000       
J-277           	5500073.780       	3562339.000       
J-278           	5567975.040       	3615726.000       
J-279           	5566318.740       	3617466.000       
J-28            	5503726.170       	3591166.000       
J-280           	5532013.630       	3537848.000       
J-281           	5543275.220       	3530828.000       
J-282           	5524128.470       	3558143.000       
J-283           	5530294.870       	3558621.000       
J-284           	5526694.180       	3616643.000       
J-286           	5498605.770       	3585278.000       
J-287           	5498826.760       	3585355.000       
J-288           	5540837.550       	3582252.000       
J-289           	5564163.600       	3563646.000       
J-29            	5500267.020       	3579541.000       
J-290           	5515857.340       	3568427.000       
J-291           	5516108.480       	3565180.000       
J-292           	5505511.260       	3590012.000       
J-294           	5499484.520       	3586326.000       
J-295           	5499609.530       	3586281.000       
J-296           	5546440.530       	3594590.000       
J-297           	5473995.670       	3564218.000       
J-298           	5474109.940       	3563149.000       
J-299           	5533238.300       	3630485.000       
J-3             	5552020.950       	3620164.000       
J-30            	5483773.590       	3569149.000       
J-300           	5521250.730       	3560397.000       
J-301           	5526173.800       	3620784.000       
J-302           	5544855.340       	3622739.000       
J-303           	5542574.310       	3622689.000       
J-304           	5498730.060       	3587018.000       
J-305           	5498740.320       	3587019.000       
J-306           	5509787.270       	3615010.000       
J-307           	5496779.100       	3587591.000       
J-308           	5496429.390       	3587405.000       
J-309           	5495957.180       	3583311.000       
J-31            	5484788.350       	3588030.000       
J-310           	5496117.340       	3583698.000       
J-311           	5549093.890       	3596241.000       
J-313           	5501452.200       	3586864.000       
J-314           	5500943.680       	3586885.000       
J-315           	5483726.880       	3569003.000       
J-316           	5505199.140       	3577998.000       
J-317           	5505190.160       	3577961.000       
J-318           	5486868.540       	3569847.000       
J-32            	5500352.060       	3580186.000       
J-320           	5509586.390       	3611781.000       
J-321           	5526663.210       	3581662.000       
J-322           	5471624.630       	3562938.000       
J-324           	5549146.320       	3600911.000       
J-325           	5565703.010       	3620805.000       
J-326           	5564024.950       	3622638.000       
J-327           	5539998.770       	3527306.000       
J-328           	5546982.660       	3517591.000       
J-33            	5494328.390       	3584265.000       
J-330           	5499919.550       	3579352.000       
J-331           	5557024.820       	3578067.000       
J-332           	5550386.550       	3535763.000       
J-333           	5545999.610       	3540822.000       
J-334           	5524151.280       	3555127.000       
J-335           	5526587.330       	3549904.000       
J-336           	5546657.390       	3584419.000       
J-337           	5508784.210       	3612365.000       
J-338           	5519143.370       	3647483.000       
J-339           	5498158.710       	3587155.000       
J-34            	5543618.960       	3542639.000       
J-340           	5491033.600       	3573162.000       
J-341           	5505074.990       	3577592.000       
J-342           	5566626.690       	3620258.000       
J-343           	5561802.930       	3621736.000       
J-344           	5531488.260       	3548513.000       
J-345           	5535673.340       	3631647.000       
J-346           	5549986.700       	3534069.000       
J-347           	5560519.770       	3620467.000       
J-348           	5500391.380       	3586001.000       
J-349           	5499630.190       	3586654.000       
J-35            	5495364.930       	3583440.000       
J-350           	5499983.140       	3585948.000       
J-351           	5502128.770       	3572310.000       
J-352           	5558063.950       	3619674.000       
J-353           	5557522.000       	3619444.000       
J-354           	5558694.030       	3620321.000       
J-355           	5561622.550       	3559614.000       
J-356           	5499318.320       	3587122.000       
J-357           	5525137.160       	3586263.000       
J-358           	5566763.490       	3620140.000       
J-359           	5530665.710       	3566596.000       
J-36            	5507145.910       	3559195.000       
J-361           	5491663.410       	3567232.000       
J-362           	5525649.290       	3615290.000       
J-363           	5501913.600       	3585401.000       
J-364           	5502116.520       	3585690.000       
J-365           	5494611.300       	3588504.000       
J-366           	5568077.230       	3615556.000       
J-367           	5488162.970       	3563431.000       
J-368           	5498354.440       	3558618.000       
J-369           	5498907.240       	3557437.000       
J-37            	5502825.210       	3565397.000       
J-370           	5488800.880       	3574720.000       
J-371           	5497801.830       	3580138.000       
J-372           	5497928.450       	3579640.000       
J-373           	5513015.370       	3617748.000       
J-374           	5513315.370       	3618712.000       
J-375           	5519202.480       	3615899.000       
J-376           	5517807.480       	3619575.000       
J-377           	5508811.870       	3611760.000       
J-378           	5509608.040       	3610199.000       
J-379           	5497570.530       	3594784.000       
J-38            	5497562.620       	3586859.000       
J-380           	5525189.590       	3617780.000       
J-381           	5520979.000       	3618757.000       
J-382           	5500709.930       	3587807.000       
J-384           	5515613.280       	3563946.000       
J-385           	5514812.490       	3564941.000       
J-386           	5516617.900       	3560825.000       
J-387           	5556615.980       	3588841.000       
J-388           	5495921.930       	3573620.000       
J-389           	5498170.440       	3584559.000       
J-39            	5492615.630       	3586997.000       
J-390           	5498324.670       	3584651.000       
J-391           	5506889.680       	3610411.000       
J-392           	5531682.050       	3536346.000       
J-393           	5532088.870       	3532553.000       
J-394           	5495099.690       	3549218.000       
J-395           	5532350.680       	3524138.000       
J-396           	5533556.770       	3522283.000       
J-397           	5498679.130       	3584855.000       
J-399           	5502428.150       	3588171.000       
J-4             	5552176.020       	3616400.000       
J-40            	5500913.410       	3583564.000       
J-400           	5501321.360       	3584371.000       
J-401           	5498778.170       	3586623.000       
J-402           	5503184.380       	3569156.000       
J-403           	5502714.580       	3566417.000       
J-404           	5497055.190       	3558318.000       
J-405           	5501879.600       	3585417.000       
J-406           	5514455.770       	3591847.000       
J-407           	5500876.640       	3586058.000       
J-408           	5501557.010       	3584268.000       
J-409           	5499318.460       	3587545.000       
J-41            	5505044.020       	3577542.000       
J-410           	5497717.020       	3587005.000       
J-411           	5498219.290       	3587066.000       
J-412           	5557973.660       	3589256.000       
J-413           	5559498.970       	3588329.000       
J-414           	5551966.060       	3533220.000       
J-415           	5556609.820       	3532378.000       
J-416           	5557606.540       	3588727.000       
J-417           	5528601.540       	3564142.000       
J-418           	5474703.680       	3563231.000       
J-419           	5501583.340       	3584234.000       
J-42            	5531693.180       	3627973.000       
J-421           	5500881.800       	3585444.000       
J-422           	5501740.070       	3585481.000       
J-423           	5500953.940       	3586810.000       
J-424           	5531792.710       	3537532.000       
J-425           	5530763.490       	3530836.000       
J-426           	5523682.470       	3544221.000       
J-427           	5531926.180       	3537717.000       
J-428           	5523650.690       	3586452.000       
J-429           	5544789.250       	3582004.000       
J-43            	5501547.720       	3584254.000       
J-430           	5532336.520       	3628545.000       
J-431           	5499399.890       	3586836.000       
J-432           	5521721.670       	3562566.000       
J-433           	5522188.260       	3563203.000       
J-434           	5525146.350       	3581851.000       
J-435           	5516341.510       	3609019.000       
J-436           	5523623.390       	3563880.000       
J-437           	5500706.210       	3585767.000       
J-438           	5507390.680       	3604762.000       
J-44            	5501308.920       	3584378.000       
J-440           	5533583.260       	3560414.000       
J-441           	5523290.250       	3636503.000       
J-442           	5520448.440       	3639360.000       
J-444           	5564258.290       	3624984.000       
J-445           	5530660.320       	3560760.000       
J-446           	5484378.760       	3547770.000       
J-447           	5499327.340       	3587021.000       
J-448           	5497367.920       	3580658.000       
J-449           	5497633.500       	3580387.000       
J-45            	5501156.150       	3584458.000       
J-450           	5501113.560       	3586368.000       
J-451           	5501080.140       	3586115.000       
J-452           	5517958.500       	3612024.000       
J-453           	5523569.940       	3605334.000       
J-454           	5520095.770       	3611239.000       
J-455           	5520762.590       	3610998.000       
J-456           	5524561.560       	3615100.000       
J-457           	5526429.890       	3613085.000       
J-458           	5522841.410       	3583167.000       
J-46            	5508599.590       	3589135.000       
J-460           	5497294.260       	3580279.000       
J-461           	5544257.870       	3618082.000       
J-462           	5544259.170       	3614409.000       
J-463           	5506094.750       	3556806.000       
J-464           	5545983.850       	3630793.000       
J-465           	5555188.750       	3631710.000       
J-466           	5516442.900       	3569252.000       
J-467           	5501448.510       	3572216.000       
J-469           	5501796.840       	3584124.000       
J-47            	5502631.680       	3588960.000       
J-470           	5528499.980       	3543275.000       
J-472           	5501936.130       	3583327.000       
J-473           	5520662.070       	3614795.000       
J-474           	5520120.090       	3611909.000       
J-476           	5500669.450       	3587704.000       
J-477           	5505446.790       	3579390.000       
J-478           	5506647.840       	3579390.000       
J-479           	5508032.040       	3564577.000       
J-48            	5521498.840       	3559816.000       
J-480           	5501266.090       	3568027.000       
J-481           	5501373.850       	3573683.000       
J-482           	5494634.080       	3580635.000       
J-484           	5499632.380       	3582069.000       
J-485           	5553899.890       	3587952.000       
J-486           	5546654.660       	3582562.000       
J-488           	5524990.310       	3621546.000       
J-49            	5506368.320       	3613675.000       
J-490           	5536459.020       	3589018.000       
J-491           	5515340.990       	3635243.000       
J-492           	5509547.920       	3632391.000       
J-493           	5533907.950       	3521640.000       
J-494           	5494344.420       	3556861.000       
J-495           	5528466.430       	3625959.000       
J-496           	5524113.760       	3627217.000       
J-497           	5496643.520       	3587896.000       
J-498           	5521794.890       	3560845.000       
J-499           	5522045.520       	3561322.000       
J-5             	5498618.830       	3580195.000       
J-50            	5508745.830       	3612818.000       
J-500           	5523377.470       	3565411.000       
J-501           	5527260.410       	3647082.000       
J-502           	5522183.800       	3635289.000       
J-503           	5518260.770       	3629697.000       
J-504           	5531945.160       	3586173.000       
J-505           	5530956.840       	3586266.000       
J-506           	5506309.270       	3542455.000       
J-507           	5524483.420       	3543628.000       
J-508           	5517831.640       	3573334.000       
J-509           	5519545.850       	3570837.000       
J-51            	5538130.390       	3621234.000       
J-510           	5525765.460       	3564869.000       
J-511           	5514131.360       	3534491.000       
J-512           	5501815.850       	3583452.000       
J-513           	5532018.690       	3565992.000       
J-514           	5522080.010       	3621559.000       
J-516           	5500913.980       	3583667.000       
J-517           	5500426.710       	3581325.000       
J-518           	5488963.500       	3589924.000       
J-519           	5489957.700       	3591227.000       
J-52            	5538104.600       	3621349.000       
J-520           	5493065.690       	3587670.000       
J-521           	5492084.620       	3587890.000       
J-522           	5505713.570       	3580254.000       
J-523           	5489994.730       	3591096.000       
J-524           	5489873.140       	3590493.000       
J-525           	5498895.720       	3582621.000       
J-526           	5493187.920       	3585065.000       
J-527           	5492669.610       	3584131.000       
J-528           	5489689.110       	3589608.000       
J-53            	5543836.760       	3605063.000       
J-530           	5504585.600       	3589541.000       
J-531           	5534887.960       	3617161.000       
J-532           	5548388.100       	3609614.000       
J-533           	5511621.680       	3618329.000       
J-534           	5510995.040       	3570685.000       
J-535           	5564897.160       	3591708.000       
J-536           	5505945.290       	3547048.000       
J-537           	5500062.820       	3540944.000       
J-538           	5497415.720       	3586742.000       
J-539           	5497236.220       	3586797.000       
J-54            	5543911.510       	3605124.000       
J-540           	5553081.600       	3622365.000       
J-542           	5504035.650       	3582675.000       
J-543           	5501457.910       	3586973.000       
J-544           	5500585.200       	3585777.000       
J-545           	5499318.440       	3587573.000       
J-547           	5508697.120       	3590773.000       
J-548           	5491228.700       	3588452.000       
J-55            	5561725.040       	3569202.000       
J-551           	5499317.160       	3587673.000       
J-552           	5498548.480       	3585651.000       
J-554           	5491924.070       	3588089.000       
J-555           	5491166.400       	3587673.000       
J-556           	5549992.410       	3590066.000       
J-557           	5551577.640       	3581947.000       
J-558           	5562130.200       	3559275.000       
J-559           	5550388.270       	3581761.000       
J-56            	5561878.590       	3569034.000       
J-561           	5502622.650       	3589010.000       
J-562           	5510722.090       	3572395.000       
J-563           	5511508.180       	3573083.000       
J-564           	5492629.480       	3585640.000       
J-565           	5536664.940       	3535067.000       
J-566           	5556460.140       	3589111.000       
J-568           	5537182.870       	3607722.000       
J-57            	5521761.100       	3544302.000       
J-570           	5493305.350       	3589101.000       
J-571           	5500878.110       	3586155.000       
J-574           	5510144.580       	3586517.000       
J-575           	5495984.950       	3582306.000       
J-576           	5492915.930       	3581919.000       
J-577           	5526217.080       	3620682.000       
J-578           	5549769.880       	3534290.000       
J-579           	5501832.550       	3566338.000       
J-58            	5521708.570       	3544368.000       
J-580           	5503504.080       	3590456.000       
J-581           	5503636.620       	3590297.000       
J-582           	5500887.070       	3587277.000       
J-583           	5512550.490       	3572086.000       
J-584           	5488310.860       	3589434.000       
J-585           	5517812.360       	3573330.000       
J-586           	5500588.470       	3587626.000       
J-587           	5531450.990       	3627742.000       
J-588           	5535089.790       	3613230.000       
J-589           	5535327.050       	3613825.000       
J-59            	5521575.470       	3544710.000       
J-591           	5523324.040       	3567959.000       
J-592           	5515550.930       	3581182.000       
J-593           	5500759.510       	3580790.000       
J-596           	5513025.230       	3608854.000       
J-597           	5499523.220       	3586546.000       
J-598           	5483711.610       	3569054.000       
J-599           	5529583.320       	3626405.000       
J-6             	5550064.560       	3600663.000       
J-60            	5551985.460       	3590128.000       
J-600           	5528474.890       	3564700.000       
J-601           	5512521.810       	3607594.000       
J-602           	5509468.830       	3606277.000       
J-603           	5510105.190       	3580435.000       
J-604           	5520375.060       	3614821.000       
J-605           	5502727.560       	3578964.000       
J-606           	5506501.210       	3566519.000       
J-608           	5499897.230       	3586731.000       
J-61            	5550566.080       	3587767.000       
J-610           	5503825.180       	3590075.000       
J-612           	5502414.110       	3590181.000       
J-613           	5520670.320       	3614770.000       
J-614           	5501551.000       	3589540.000       
J-615           	5520667.150       	3615408.000       
J-617           	5507750.510       	3568430.000       
J-618           	5500539.450       	3588658.000       
J-619           	5502230.600       	3586376.000       
J-62            	5502353.820       	3589359.000       
J-63            	5503052.950       	3589953.000       
J-64            	5552219.440       	3589374.000       
J-65            	5553223.620       	3590579.000       
J-66            	5507051.740       	3594055.000       
J-67            	5506563.610       	3600185.000       
J-68            	5501651.550       	3585520.000       
J-69            	5500267.910       	3581789.000       
J-7             	5504928.200       	3575851.000       
J-70            	5558592.820       	3572978.000       
J-71            	5558295.760       	3574061.000       
J-72            	5504206.670       	3590180.000       
J-73            	5500766.370       	3588003.000       
J-74            	5501013.050       	3584534.000       
J-75            	5503289.270       	3576302.000       
J-76            	5503350.390       	3574849.000       
J-77            	5503797.400       	3591062.000       
J-78            	5508059.410       	3589356.000       
J-78a           	5500948.560       	3584748.000       
J-79            	5561848.960       	3569471.000       
J-8             	5507299.480       	3578005.000       
J-80            	5543601.420       	3542696.000       
J-82            	5504352.670       	3590239.000       
J-83            	5493226.960       	3587675.000       
J-84            	5493463.320       	3588280.000       
J-85            	5504251.530       	3590206.000       
J-86            	5499296.660       	3585827.000       
J-87            	5521437.260       	3542644.000       
J-88            	5501502.310       	3585671.000       
J-89            	5526809.840       	3637179.000       
J-9             	5504631.540       	3575450.000       
J-90            	5500432.170       	3586416.000       
J-91            	5500413.810       	3586328.000       
J-92            	5540094.170       	3529462.000       
J-93            	5538466.710       	3533998.000       
J-94            	5498592.500       	3589184.000       
J-95            	5496513.850       	3589804.000       
J-96            	5501189.560       	3584441.000       
J-97            	5502823.260       	3588711.000       
J-98            	5529622.320       	3626423.000       
J-99            	5530715.570       	3625568.000       
I-Pump-1        	5515811.170       	3591584.000       
I-Pump-10       	5532118.230       	3548522.000       
O-Pump-11       	5526463.680       	3557735.000       
O-Pump-12       	5537893.070       	3592620.000       
I-Pump-13       	5540680.620       	3612454.000       
O-Pump-2        	5498948.160       	3585719.000       
O-Pump-3        	5470414.550       	3562887.000       
I-Pump-4        	5500261.870       	3581727.000       
O-Pump-5        	5538696.590       	3558355.000       
O-Pump-6        	5529264.110       	3568609.000       
O-Pump-7        	5525920.040       	3621712.000       
O-Pump-8        	5501733.020       	3585680.000       
I-Pump-9        	5498885.700       	3583230.000       
I-RV-1          	5510266.260       	3632105.000       
I-RV-10         	5551501.780       	3533273.000       
I-RV-11         	5529215.430       	3564661.000       
I-RV-12         	5536204.050       	3568968.000       
I-RV-13         	5485378.830       	3577310.000       
I-RV-14         	5497781.040       	3580200.000       
I-RV-15         	5492227.210       	3587736.000       
I-RV-16         	5493273.900       	3588884.000       
I-RV-17         	5523475.870       	3605550.000       
I-RV-18         	5555035.970       	3631684.000       
O-RV-19         	5525212.180       	3621193.000       
I-RV-2          	5525624.340       	3581804.000       
O-RV-20         	5542278.250       	3622913.000       
I-RV-21         	5548289.190       	3609301.000       
I-RV-22         	5522896.870       	3567549.000       
I-RV-23         	5523656.120       	3564902.000       
I-RV-24         	5525445.650       	3564159.000       
I-RV-25         	5510701.260       	3636370.000       
I-RV-26         	5524335.720       	3571138.000       
I-RV-27         	5494165.420       	3549495.670       
I-RV-28         	5506064.520       	3547162.000       
I-RV-3          	5524440.150       	3575062.000       
I-RV-4          	5527179.400       	3584690.000       
O-RV-5          	5525593.280       	3586770.000       
I-RV-6          	5514520.850       	3538129.000       
O-RV-7          	5519879.120       	3537326.000       
I-RV-8          	5532013.760       	3524629.000       
O-RV-9          	5545811.520       	3518740.000       
O-Pump-1        	5515811.170       	3591584.000       
O-Pump-10       	5532118.230       	3548522.000       
I-Pump-11       	5526463.680       	3557735.000       
I-Pump-12       	5537893.070       	3592620.000       
O-Pump-13       	5540680.620       	3612454.000       
I-Pump-2        	5498948.160       	3585719.000       
I-Pump-3        	5470414.550       	3562887.000       
O-Pump-4        	5500261.870       	3581727.000       
I-Pump-5        	5538696.590       	3558355.000       
I-Pump-6        	5529264.110       	3568609.000       
I-Pump-7        	5525920.040       	3621712.000       
I-Pump-8        	5501733.020       	3585680.000       
O-Pump-9        	5498885.700       	3583230.000       
O-RV-1          	5510266.260       	3632105.000       
O-RV-10         	5551501.780       	3533273.000       
O-RV-11         	5529215.430       	3564661.000       
O-RV-12         	5536204.050       	3568968.000       
O-RV-13         	5485378.830       	3577310.000       
O-RV-14         	5497781.040       	3580200.000       
O-RV-15         	5492227.210       	3587736.000       
O-RV-16         	5493273.900       	3588884.000       
O-RV-17         	5523475.870       	3605550.000       
O-RV-18         	5555035.970       	3631684.000       
I-RV-19         	5525212.180       	3621193.000       
O-RV-2          	5525624.340       	3581804.000       
I-RV-20         	5542278.250       	3622913.000       
O-RV-21         	5548289.190       	3609301.000       
O-RV-22         	5522896.870       	3567549.000       
O-RV-23         	5523656.120       	3564902.000       
O-RV-24         	5525445.650       	3564159.000       
O-RV-25         	5510701.260       	3636370.000       
O-RV-26         	5524335.720       	3571138.000       
O-RV-27         	5494165.260       	3549482.000       
O-RV-28         	5506064.520       	3547162.000       
O-RV-3          	5524440.150       	3575062.000       
O-RV-4          	5527179.400       	3584690.000       
I-RV-5          	5525593.280       	3586770.000       
O-RV-6          	5514520.850       	3538129.000       
I-RV-7          	5519879.120       	3537326.000       
O-RV-8          	5532013.760       	3524629.000       
I-RV-9          	5545811.520       	3518740.000       
R-1             	5516198.820       	3591053.000       
R-2             	5469174.090       	3562369.000       
T-1             	5474022.000       	3564383.000       
T-2             	5525489.040       	3624388.000       
T-3             	5504275.410       	3585629.000       
T-4             	5501063.500       	3587639.000       
T-5             	5499428.100       	3586052.000       
T-6             	5498628.450       	3583415.000       
T-7             	5528344.610       	3570374.000       
T-8             	5544108.560       	3542783.000       

[VERTICES]
;Link            	X-Coord           	Y-Coord
P-283           	5494250.840       	3552722.000       
P-283           	5494208.050       	3551102.000       

[LABELS]
;X-Coord             Y-Coord             Label & Anchor Node

[BACKDROP]
  DIMENSIONS  	5464228.930       	3510828.550       	5573022.390       	3659602.450       
 UNITS          	None
 FILE           	
 OFFSET         	0.00            	0.00            

[END]
