[TITLE]
Scenario: Base 								
Date: 16-06-2016 23:12:10 								

[JUNCTIONS]
;ID              	Elev        	Demand      	Pattern         
 n-1             	289.521     	3.4         	                	;				
 n-2             	288         	19.2        	                	;				
 n-3             	285.6       	21.4        	                	;				
 n-4             	292         	7.3         	                	;				
 n-5             	288         	3.8         	                	;				
 n-6             	286         	3.7         	                	;				
 n-7             	282         	5.3         	                	;				
 n-8             	286.39      	5.5         	                	;				
 n-9             	285.493     	1.5         	                	;				
 n-10            	286         	2.5         	                	;				
 n-11            	286         	3.1         	                	;				
 n-12            	284         	3.1         	                	;				
 n-13            	282         	1.8         	                	;				
 n-14            	290.089     	15.8        	                	;				
 n-15            	284.936     	6.9         	                	;				
 n-16            	284.865     	5.1         	                	;				
 n-17            	282.639     	5.8         	                	;				
 n-18            	283.808     	4.6         	                	;				
 n-19            	287.723     	6.1         	                	;				
 n-20            	286.387     	12.4        	                	;				
 n-21            	288.125     	2.8         	                	;				
 n-22            	287.145     	3.7         	                	;				
 n-23            	290.309     	15          	                	;				
 n-24            	296.419     	5.6         	                	;				
 n-25            	286.346     	1.4         	                	;				
 n-26            	284.009     	9.9         	                	;				
 n-27            	286.32      	5.9         	                	;				
 n-28            	285.323     	7.7         	                	;				
 n-29            	292.469     	8.8         	                	;				
 n-30            	285.521     	3.5         	                	;				
 n-31            	284.575     	2.1         	                	;				
 n-32            	284.715     	5.8         	                	;				
 n-33            	284.546     	5.1         	                	;				
 n-34            	284.206     	3.5         	                	;				
 n-35            	283.501     	1.5         	                	;				
 n-36            	282.599     	5           	                	;				
 n-37            	282.339     	1.2         	                	;				
 n-38            	291.525     	8.4         	                	;				
 n-39            	292.425     	15.2        	                	;				
 n-40            	292.865     	13.7        	                	;				
 n-41            	292.706     	21.5        	                	;				
 n-42            	293.47      	7.3         	                	;				
 n-43            	291.681     	5.7         	                	;				
 n-44            	290.471     	8.5         	                	;				
 n-45            	289.205     	16.4        	                	;				
 n-46            	288.374     	15.6        	                	;				
 n-47            	289.521     	10.4        	                	;				
 n-48            	283.6266    	3.4         	                	;				
 n-49            	289.905     	2.7         	                	;				
 n-50            	290.319     	14          	                	;				
 n-51            	290.91      	14.3        	                	;				
 n-52            	290.399     	1.2         	                	;				
 n-53            	286.294     	18.2        	                	;				
 n-54            	286.541     	1.3         	                	;				
 n-55            	286.32      	7.5         	                	;				
 n-56            	290.089     	12.6        	                	;				
 n-57            	287.724     	7.9         	                	;				
 n-58            	287.585     	6.1         	                	;				
 n-59            	282.423     	4.5         	                	;				
 n-60            	286.999     	14.2        	                	;				
 n-61            	287.099     	3.4         	                	;				
 n-62            	285.165     	11.3        	                	;				
 n-63            	286.45      	4.3         	                	;				
 n-64            	289.171     	12.4        	                	;				
 n-65            	290.521     	9           	                	;				
 n-66            	288.379     	14.1        	                	;				
 n-67            	287.921     	13.3        	                	;				
 n-68            	290.91      	21.2        	                	;				
 n-69            	283.516     	6.2         	                	;				
 n-70            	287.055     	6.8         	                	;				
 n-71            	288.09      	24.5        	                	;				
 n-72            	285.593     	19          	                	;				
 n-73            	285.33      	1.5         	                	;				
 n-74            	286.039     	19.7        	                	;				
 n-75            	286.155     	14          	                	;				
 n-76            	287.145     	9.4         	                	;				
 n-77            	287.37      	2.7         	                	;				
 n-78            	286.17      	9.7         	                	;				
 n-79            	284.845     	6           	                	;				
 n-80            	283.467     	4.8         	                	;				
 n-81            	284.899     	6.6         	                	;				
 n-82            	285.663     	7.8         	                	;				
 n-83            	285.521     	4.5         	                	;				
 n-84            	285.379     	1.6         	                	;				
 n-85            	285.618     	9.1         	                	;				
 n-86            	285.082     	9.4         	                	;				
 n-87            	284.617     	14.1        	                	;				
 n-88            	284.894     	8.1         	                	;				
 n-89            	285.04      	6.1         	                	;				
 n-90            	284.845     	1.7         	                	;				
 n-91            	283.275     	5.9         	                	;				
 n-92            	284.553     	9           	                	;				
 n-93            	284.696     	10.2        	                	;				
 n-94            	285.145     	12.2        	                	;				
 n-95            	285.319     	4.6         	                	;				
 n-96            	284.749     	8.9         	                	;				
 n-97            	283.927     	5.5         	                	;				
 n-98            	284.02      	3.2         	                	;				
 n-99            	284.016     	9           	                	;				
 n-100           	284.1       	8.1         	                	;				
 n-101           	283.366     	7.3         	                	;				
 n-102           	283.475     	1           	                	;				

[RESERVOIRS]
;ID              	Head        	Pattern         

[TANKS]
;ID              	Elevation   	InitLevel   	MinLevel    	MaxLevel    	Diameter    	MinVol      	VolCurve
 T-3             	302         	0.15        	0.1         	4           	10          	0           	                	;
 T-2             	302         	0.15        	0.1         	4           	10          	0           	                	;
 T-1             	302         	0.15        	0.1         	4           	10          	0           	                	;

[PIPES]
;ID              	Node1           	Node2           	Length      	Diameter    	Roughness   	MinorLoss   	Status
 p-1             	n-41            	n-43            	101.43      	67.4        	140         	0           	Open  	;
 p-2             	n-99            	n-92            	106.69      	67.4        	140         	0           	Open  	;
 p-3             	n-60            	n-62            	97.34       	67.4        	140         	0           	Open  	;
 p-4             	n-64            	n-57            	91.62       	81.1        	140         	0           	Open  	;
 p-5             	n-3             	n-2             	106.7       	67.4        	140         	0           	Open  	;
 p-6             	n-87            	n-86            	115.77      	67.4        	140         	0           	Open  	;
 p-7             	n-93            	n-20            	83.93       	67.4        	140         	0           	Open  	;
 p-8             	n-69            	n-59            	79.96       	67.4        	140         	0           	Open  	;
 p-9             	n-19            	n-63            	75.74       	67.4        	140         	0           	Open  	;
 p-10            	n-14            	n-66            	76.06       	180.6       	140         	0           	Open  	;
 p-11            	n-62            	n-95            	82.05       	67.4        	140         	0           	Open  	;
 p-12            	n-85            	n-28            	95.6        	81.1        	140         	0           	Open  	;
 p-13            	n-51            	n-39            	71.64       	67.4        	140         	0           	Open  	;
 p-14            	n-94            	n-53            	70.02       	67.4        	140         	0           	Open  	;
 p-15            	n-74            	n-72            	70.04       	67.4        	140         	0           	Open  	;
 p-16            	n-15            	n-78            	69.95       	81.1        	140         	0           	Open  	;
 p-17            	n-16            	n-96            	69.35       	67.4        	140         	0           	Open  	;
 p-18            	n-55            	n-67            	67.41       	126.3       	140         	0           	Open  	;
 p-19            	n-46            	n-5             	66.46       	67.4        	140         	0           	Open  	;
 p-20            	n-26            	n-88            	65.09       	67.4        	140         	0           	Open  	;
 p-21            	n-97            	n-94            	63.06       	67.4        	140         	0           	Open  	;
 p-22            	n-91            	n-26            	62.34       	67.4        	140         	0           	Open  	;
 p-23            	n-80            	n-48            	60.88       	67.4        	140         	0           	Open  	;
 p-24            	n-75            	n-74            	60.45       	67.4        	140         	0           	Open  	;
 p-25            	n-58            	n-61            	59.15       	67.4        	140         	0           	Open  	;
 p-26            	n-98            	n-93            	56.44       	67.4        	140         	0           	Open  	;
 p-27            	n-76            	n-82            	53.19       	81.1        	140         	0           	Open  	;
 p-28            	n-87            	n-12            	55.44       	67.4        	140         	0           	Open  	;
 p-29            	n-8             	n-6             	65.65       	67.4        	140         	0           	Open  	;
 p-30            	n-75            	n-11            	54.67       	67.4        	140         	0           	Open  	;
 p-31            	n-32            	n-85            	54.13       	67.4        	140         	0           	Open  	;
 p-32            	n-33            	n-79            	51.55       	81.1        	140         	0           	Open  	;
 p-33            	n-92            	n-15            	52.06       	67.4        	140         	0           	Open  	;
 p-34            	n-50            	n-49            	47.41       	67.4        	140         	0           	Open  	;
 p-35            	n-26            	n-87            	47.87       	67.4        	140         	0           	Open  	;
 p-36            	n-101           	n-100           	66.1        	67.4        	140         	0           	Open  	;
 p-37            	n-76            	n-77            	47.27       	67.4        	140         	0           	Open  	;
 p-38            	n-100           	n-88            	46.38       	67.4        	140         	0           	Open  	;
 p-39            	n-78            	n-27            	45.24       	99.3        	140         	0           	Open  	;
 p-40            	n-39            	n-40            	46.34       	81.1        	140         	0           	Open  	;
 p-41            	n-96            	n-18            	45.94       	67.4        	140         	0           	Open  	;
 p-42            	n-71            	n-68            	45.32       	67.4        	140         	0           	Open  	;
 p-43            	n-89            	n-83            	45.88       	67.4        	140         	0           	Open  	;
 p-44            	n-74            	n-10            	44.95       	67.4        	140         	0           	Open  	;
 p-45            	n-71            	n-46            	43.68       	67.4        	140         	0           	Open  	;
 p-46            	n-94            	n-96            	41.5        	67.4        	140         	0           	Open  	;
 p-47            	n-67            	n-66            	40.57       	144.4       	140         	0           	Open  	;
 p-48            	n-23            	n-50            	39.99       	67.4        	140         	0           	Open  	;
 p-49            	n-101           	n-99            	39.1        	67.4        	140         	0           	Open  	;
 p-50            	n-93            	n-94            	39.98       	67.4        	140         	0           	Open  	;
 p-51            	n-36            	n-17            	38.55       	67.4        	140         	0           	Open  	;
 p-52            	n-86            	n-31            	37.72       	67.4        	140         	0           	Open  	;
 p-53            	n-18            	n-97            	34.76       	67.4        	140         	0           	Open  	;
 p-54            	n-22            	n-76            	33.97       	99.3        	140         	0           	Open  	;
 p-55            	n-82            	n-78            	33.56       	99.3        	140         	0           	Open  	;
 p-56            	n-27            	n-55            	34.2        	99.3        	140         	0           	Open  	;
 p-57            	n-58            	n-60            	32.58       	67.4        	140         	0           	Open  	;
 p-58            	n-7             	n-13            	31.53       	67.4        	140         	0           	Open  	;
 p-59            	n-55            	n-8             	31.63       	67.4        	140         	0           	Open  	;
 p-60            	n-57            	n-19            	32.55       	67.4        	140         	0           	Open  	;
 p-61            	n-100           	n-34            	31.22       	81.1        	140         	0           	Open  	;
 p-62            	n-88            	n-89            	30.82       	67.4        	140         	0           	Open  	;
 p-63            	n-68            	n-76            	30.79       	126.3       	140         	0           	Open  	;
 p-64            	n-87            	n-89            	30.65       	67.4        	140         	0           	Open  	;
 p-65            	n-91            	n-36            	29.35       	67.4        	140         	0           	Open  	;
 p-66            	n-21            	n-22            	30.52       	99.3        	140         	0           	Open  	;
 p-67            	n-79            	n-90            	29.44       	67.4        	140         	0           	Open  	;
 p-68            	n-72            	n-73            	27.24       	67.4        	140         	0           	Open  	;
 p-69            	n-32            	n-84            	27.64       	67.4        	140         	0           	Open  	;
 p-70            	n-72            	n-9             	26.85       	67.4        	140         	0           	Open  	;
 p-71            	n-20            	n-53            	25.62       	67.4        	140         	0           	Open  	;
 p-72            	n-17            	n-35            	25.81       	67.4        	140         	0           	Open  	;
 p-73            	n-79            	n-81            	25.63       	81.1        	140         	0           	Open  	;
 p-74            	n-83            	n-30            	23.91       	67.4        	140         	0           	Open  	;
 p-75            	n-40            	n-41            	23.59       	99.3        	140         	0           	Open  	;
 p-76            	n-78            	n-54            	23.13       	67.4        	140         	0           	Open  	;
 p-77            	n-27            	n-25            	24.54       	67.4        	140         	0           	Open  	;
 p-78            	n-56            	n-64            	21.68       	99.3        	140         	0           	Open  	;
 p-79            	n-33            	n-32            	21.48       	67.4        	140         	0           	Open  	;
 p-80            	n-52            	n-51            	21.39       	67.4        	140         	0           	Open  	;
 p-81            	n-36            	n-37            	20.58       	67.4        	140         	0           	Open  	;
 p-82            	n-62            	n-16            	20.54       	67.4        	140         	0           	Open  	;
 p-83            	n-102           	n-69            	18.15       	67.4        	140         	0           	Open  	;
 p-84            	n-34            	n-33            	17.45       	81.1        	140         	0           	Open  	;
 p-85            	n-57            	n-58            	15.47       	67.4        	140         	0           	Open  	;
 p-86            	n-86            	n-30            	13.26       	67.4        	140         	0           	Open  	;
 p-87            	n-99            	n-34            	12.57       	67.4        	140         	0           	Open  	;
 p-88            	n-80            	n-91            	12.5        	67.4        	140         	0           	Open  	;
 p-89            	n-69            	n-80            	10.65       	67.4        	140         	0           	Open  	;
 p-90            	n-85            	n-83            	10.2        	67.4        	140         	0           	Open  	;
 p-91            	n-46            	n-1             	44          	67.4        	140         	0           	Open  	;
 p-92            	n-2             	n-21            	19.03       	99.3        	140         	0           	Open  	;
 p-93            	n-75            	n-2             	86.92       	67.4        	140         	0           	Open  	;
 p-94            	n-3             	n-75            	44.92       	67.4        	140         	0           	Open  	;
 p-95            	n-30            	n-3             	24.24       	67.4        	140         	0           	Open  	;
 p-96            	n-7             	n-101           	24.35       	67.4        	140         	0           	Open  	;
 p-97            	n-17            	n-7             	38.15       	67.4        	140         	0           	Open  	;
 p-98            	n-47            	n-45            	118.12      	67.4        	140         	0           	Open  	;
 p-99            	n-23            	n-47            	66.2        	67.4        	140         	0           	Open  	;
 p-100           	n-81            	n-28            	40.96       	81.1        	140         	0           	Open  	;
 p-101           	n-82            	n-81            	50.1        	99.3        	140         	0           	Open  	;
 p-102           	n-29            	n-4             	72.69       	126.3       	140         	0           	Open  	;
 p-103           	n-24            	n-29            	81.81       	126.3       	140         	0           	Open  	;
 p-104           	n-4             	n-38            	55.73       	126.3       	140         	0           	Open  	;
 p-105           	T-1             	n-24            	16.29       	150         	140         	0           	Open  	;
 p-106           	n-38            	n-56            	92.34       	126.3       	140         	0           	Open  	;
 p-107           	n-71            	n-72            	211.45      	67.4        	140         	0           	Open  	;
 p-108           	T-3             	n-14            	202.66      	180.6       	140         	0           	Open  	;
 p-109           	n-74            	n-68            	171.95      	67.4        	140         	0           	Open  	;
 p-110           	n-40            	n-45            	172.12      	67.4        	140         	0           	Open  	;
 p-111           	n-65            	n-23            	158.85      	67.4        	140         	0           	Open  	;
 p-112           	n-50            	n-51            	158.93      	67.4        	140         	0           	Open  	;
 p-113           	n-44            	n-39            	150.65      	67.4        	140         	0           	Open  	;
 p-114           	n-66            	n-71            	131.64      	99.3        	140         	0           	Open  	;
 p-115           	n-67            	n-68            	126.81      	126.3       	140         	0           	Open  	;
 p-116           	n-41            	n-42            	128.19      	67.4        	140         	0           	Open  	;
 p-117           	n-60            	n-53            	120.36      	67.4        	140         	0           	Open  	;
 p-118           	T-2             	n-41            	125.91      	126.3       	140         	0           	Open  	;
 p-119           	n-46            	n-70            	120.53      	67.4        	140         	0           	Open  	;
 p-120           	n-20            	n-56            	108.46      	67.4        	140         	0           	Open  	;
 p-121           	n-53            	n-64            	105.57      	67.4        	140         	0           	Open  	;
 1               	n-65            	n-52            	40          	67.4        	140         	0           	Open  	;

[PUMPS]
;ID              	Node1           	Node2           	Parameters

[VALVES]
;ID              	Node1           	Node2           	Diameter    	Type	Setting     	MinorLoss   

[TAGS]

[DEMANDS]
;Junction        	Demand      	Pattern         	Category

[STATUS]
;ID              	Status/Setting

[PATTERNS]
;ID              	Multipliers

[CURVES]
;ID              	X-Value     	Y-Value

[CONTROLS]
								

[RULES]
								

[ENERGY]
 Global Efficiency  	75
 Global Price       	0
 Demand Charge      	0

[EMITTERS]
;Junction        	Coefficient

[QUALITY]
;Node            	InitQual

[SOURCES]
;Node            	Type        	Quality     	Pattern

[REACTIONS]
;Type     	Pipe/Tank       	Coefficient


[REACTIONS]
 Order Bulk            	1
 Order Tank            	1
 Order Wall            	1
 Global Bulk           	0
 Global Wall           	0
 Limiting Potential    	0
 Roughness Correlation 	0

[MIXING]
;Tank            	Model

[TIMES]
 Duration           	0:00 
 Hydraulic Timestep 	1:00 
 Quality Timestep   	0:00 
 Pattern Timestep   	1:00 
 Pattern Start      	0:00 
 Report Timestep    	1:00 
 Report Start       	0:00 
 Start ClockTime    	12:00 AM
 Statistic          	NONE

[REPORT]
 Status             	No
 Summary            	No
 Page               	0

[OPTIONS]
 Units              	LPM
 Headloss           	H-W
 Specific Gravity   	0.998
 Viscosity          	1
 Trials             	40
 Accuracy           	0.001
 CHECKFREQ          	2
 MAXCHECK           	10
 DAMPLIMIT          	0
 Unbalanced         	Continue 10
 Pattern            	1
 Demand Multiplier  	4.31
 Emitter Exponent   	0.5
 Quality            	NONE mg/L
 Diffusivity        	1
 Tolerance          	0.01

[COORDINATES]
;Node            	X-Coord         	Y-Coord
 n-1             	812314.58       	1799264.88      
 n-2             	812230.50       	1799083.82      
 n-3             	812162.26       	1799030.02      
 n-4             	812644.80       	1799178.61      
 n-5             	812364.14       	1799219.52      
 n-6             	812382.43       	1799032.42      
 n-7             	812268.08       	1798863.74      
 n-8             	812433.45       	1799053.60      
 n-9             	812063.81       	1799176.40      
 n-10            	812077.31       	1799117.86      
 n-11            	812091.39       	1799060.32      
 n-12            	812137.68       	1798867.52      
 n-13            	812297.10       	1798851.41      
 n-14            	812494.74       	1799144.06      
 n-15            	812320.33       	1798989.32      
 n-16            	812532.64       	1798930.06      
 n-17            	812241.02       	1798837.77      
 n-18            	812456.06       	1798915.72      
 n-19            	812619.76       	1799056.20      
 n-20            	812436.77       	1799052.13      
 n-21            	812249.40       	1799086.01      
 n-22            	812259.41       	1799112.99      
 n-23            	812376.01       	1799243.05      
 n-24            	812694.87       	1799274.38      
 n-25            	812372.93       	1799040.53      
 n-26            	812174.88       	1798875.76      
 n-27            	812369.38       	1799063.07      
 n-28            	812248.45       	1799031.45      
 n-29            	812715.53       	1799195.37      
 n-30            	812172.76       	1799008.20      
 n-31            	812125.30       	1799014.75      
 n-32            	812243.13       	1798958.37      
 n-33            	812259.15       	1798944.31      
 n-34            	812273.00       	1798933.77      
 n-35            	812217.02       	1798846.41      
 n-36            	812217.89       	1798807.16      
 n-37            	812236.24       	1798797.89      
 n-38            	812590.43       	1799166.37      
 n-39            	812487.10       	1799257.84      
 n-40            	812483.74       	1799303.19      
 n-41            	812479.63       	1799326.38      
 n-42            	812425.16       	1799434.44      
 n-43            	812390.35       	1799371.19      
 n-44            	812361.27       	1799336.73      
 n-45            	812325.82       	1799362.68      
 n-46            	812298.50       	1799229.89      
 n-47            	812315.98       	1799270.84      
 n-48            	812235.41       	1798787.04      
 n-49            	812353.32       	1799309.67      
 n-50            	812389.77       	1799279.54      
 n-51            	812522.61       	1799196.38      
 n-52            	812533.10       	1799178.09      
 n-53            	812461.64       	1799045.98      
 n-54            	812330.16       	1799081.16      
 n-55            	812403.45       	1799063.51      
 n-56            	812502.66       	1799137.70      
 n-57            	812594.05       	1799074.28      
 n-58            	812587.00       	1799060.93      
 n-59            	812240.94       	1798768.20      
 n-60            	812580.36       	1799029.04      
 n-61            	812531.16       	1799078.72      
 n-62            	812548.11       	1798943.54      
 n-63            	812606.17       	1798981.76      
 n-64            	812523.35       	1799131.40      
 n-65            	812510.78       	1799160.48      
 n-66            	812424.31       	1799168.71      
 n-67            	812417.67       	1799128.68      
 n-68            	812291.84       	1799142.42      
 n-69            	812170.92       	1798804.01      
 n-70            	812188.99       	1799249.23      
 n-71            	812295.20       	1799187.55      
 n-72            	812088.13       	1799187.77      
 n-73            	812074.38       	1799211.28      
 n-74            	812121.42       	1799126.55      
 n-75            	812144.96       	1799071.25      
 n-76            	812293.34       	1799111.74      
 n-77            	812339.35       	1799107.28      
 n-78            	812324.86       	1799058.68      
 n-79            	812279.84       	1798991.07      
 n-80            	812179.47       	1798810.35      
 n-81            	812270.21       	1799014.08      
 n-82            	812291.38       	1799058.84      
 n-83            	812186.79       	1798989.27      
 n-84            	812252.84       	1798983.75      
 n-85            	812195.23       	1798983.55      
 n-86            	812160.44       	1799003.29      
 n-87            	812157.45       	1798919.31      
 n-88            	812197.85       	1798936.32      
 n-89            	812169.22       	1798947.58      
 n-90            	812301.49       	1798972.75      
 n-91            	812190.31       	1798816.17      
 n-92            	812368.33       	1798972.71      
 n-93            	812396.31       	1798979.26      
 n-94            	812435.09       	1798981.48      
 n-95            	812497.10       	1798997.12      
 n-96            	812469.95       	1798958.96      
 n-97            	812421.71       	1798920.00      
 n-98            	812379.97       	1798925.38      
 n-99            	812281.79       	1798924.83      
 n-100           	812242.80       	1798926.04      
 n-101           	812269.29       	1798888.01      
 n-102           	812156.00       	1798794.00      
 T-3             	812601.79       	1799282.79      
 T-2             	812589.53       	1799289.30      
 T-1             	812678.66       	1799275.77      

[VERTICES]
;Link            	X-Coord         	Y-Coord
 p-1             	812474.85       	1799325.60      
 p-1             	812471.67       	1799325.80      
 p-1             	812464.20       	1799327.96      
 p-1             	812454.86       	1799332.84      
 p-1             	812450.05       	1799335.77      
 p-1             	812440.67       	1799341.14      
 p-1             	812432.21       	1799346.32      
 p-1             	812423.89       	1799351.71      
 p-1             	812415.25       	1799356.94      
 p-1             	812406.02       	1799362.01      
 p-1             	812401.41       	1799364.36      
 p-1             	812393.51       	1799368.95      
 p-2             	812289.49       	1798919.18      
 p-2             	812293.23       	1798918.47      
 p-2             	812299.80       	1798920.66      
 p-2             	812307.62       	1798925.33      
 p-2             	812316.89       	1798932.90      
 p-2             	812327.84       	1798942.57      
 p-2             	812339.04       	1798951.67      
 p-2             	812344.78       	1798955.65      
 p-2             	812356.61       	1798962.61      
 p-2             	812361.97       	1798966.00      
 p-2             	812365.02       	1798969.12      
 p-3             	812579.39       	1799021.72      
 p-3             	812577.23       	1799009.48      
 p-3             	812574.19       	1798996.62      
 p-3             	812572.91       	1798990.15      
 p-3             	812569.46       	1798976.23      
 p-3             	812567.75       	1798969.32      
 p-3             	812565.31       	1798957.97      
 p-3             	812561.09       	1798947.84      
 p-3             	812552.09       	1798944.93      
 p-4             	812527.03       	1799126.15      
 p-4             	812532.17       	1799121.19      
 p-4             	812534.89       	1799118.79      
 p-4             	812538.07       	1799116.01      
 p-4             	812544.38       	1799112.24      
 p-4             	812546.14       	1799110.38      
 p-4             	812554.06       	1799104.86      
 p-4             	812557.74       	1799102.09      
 p-4             	812566.49       	1799096.50      
 p-4             	812570.92       	1799093.27      
 p-4             	812575.90       	1799089.72      
 p-4             	812588.98       	1799080.67      
 p-4             	812591.60       	1799077.49      
 p-5             	812221.29       	1799037.54      
 p-6             	812150.85       	1798921.76      
 p-6             	812143.20       	1798923.75      
 p-6             	812135.23       	1798925.23      
 p-6             	812129.01       	1798926.32      
 p-6             	812127.20       	1798932.33      
 p-6             	812127.70       	1798945.82      
 p-6             	812132.00       	1798957.54      
 p-6             	812134.48       	1798964.10      
 p-6             	812140.13       	1798970.94      
 p-6             	812142.96       	1798974.59      
 p-6             	812148.16       	1798983.10      
 p-6             	812152.75       	1798991.39      
 p-6             	812154.98       	1798995.14      
 p-7             	812396.58       	1798982.41      
 p-7             	812397.89       	1798986.90      
 p-7             	812404.69       	1799000.75      
 p-7             	812411.06       	1799013.25      
 p-7             	812419.60       	1799027.38      
 p-7             	812429.57       	1799041.78      
 p-8             	812181.09       	1798793.64      
 p-8             	812186.04       	1798791.26      
 p-8             	812194.61       	1798787.50      
 p-8             	812201.10       	1798784.76      
 p-8             	812207.57       	1798782.73      
 p-8             	812211.30       	1798781.21      
 p-8             	812218.65       	1798778.37      
 p-8             	812222.47       	1798776.70      
 p-8             	812229.61       	1798773.10      
 p-8             	812235.90       	1798768.81      
 p-9             	812618.29       	1799043.38      
 p-9             	812616.76       	1799037.84      
 p-9             	812614.05       	1799025.95      
 p-9             	812611.56       	1799013.47      
 p-9             	812610.42       	1799007.01      
 p-9             	812608.61       	1798994.95      
 p-10            	812481.86       	1799149.80      
 p-10            	812477.68       	1799151.34      
 p-10            	812470.98       	1799154.29      
 p-10            	812462.24       	1799158.71      
 p-10            	812457.59       	1799161.06      
 p-10            	812453.29       	1799163.39      
 p-10            	812444.65       	1799166.81      
 p-10            	812436.04       	1799169.89      
 p-10            	812427.65       	1799169.62      
 p-11            	812546.62       	1798948.14      
 p-11            	812545.40       	1798952.10      
 p-11            	812544.91       	1798962.42      
 p-11            	812543.98       	1798967.71      
 p-11            	812542.26       	1798971.85      
 p-11            	812534.90       	1798977.67      
 p-11            	812530.43       	1798980.89      
 p-11            	812521.07       	1798989.14      
 p-11            	812516.43       	1798992.15      
 p-11            	812507.67       	1798994.65      
 p-11            	812504.04       	1798995.22      
 p-12            	812201.63       	1798989.56      
 p-12            	812207.59       	1798995.94      
 p-12            	812210.77       	1799004.92      
 p-12            	812212.28       	1799008.82      
 p-12            	812215.19       	1799015.76      
 p-12            	812217.29       	1799023.09      
 p-12            	812218.85       	1799026.82      
 p-12            	812221.29       	1799034.42      
 p-12            	812222.30       	1799037.54      
 p-12            	812225.60       	1799040.50      
 p-12            	812231.03       	1799040.07      
 p-12            	812238.32       	1799039.94      
 p-12            	812244.01       	1799038.53      
 p-12            	812248.78       	1799037.44      
 p-13            	812521.66       	1799200.46      
 p-13            	812520.98       	1799203.40      
 p-13            	812520.25       	1799206.46      
 p-13            	812513.90       	1799217.96      
 p-13            	812494.59       	1799245.29      
 p-13            	812491.98       	1799251.11      
 p-14            	812437.17       	1798983.93      
 p-14            	812439.83       	1798991.10      
 p-14            	812442.39       	1799000.08      
 p-14            	812443.85       	1799004.86      
 p-14            	812447.76       	1799015.20      
 p-14            	812452.38       	1799025.75      
 p-14            	812457.18       	1799036.31      
 p-15            	812117.54       	1799131.57      
 p-15            	812112.52       	1799137.21      
 p-15            	812108.00       	1799147.35      
 p-15            	812102.72       	1799157.93      
 p-15            	812097.17       	1799169.51      
 p-15            	812093.27       	1799177.59      
 p-16            	812320.21       	1798993.89      
 p-16            	812321.27       	1798996.99      
 p-16            	812322.30       	1799000.58      
 p-16            	812323.03       	1799004.57      
 p-16            	812322.60       	1799012.86      
 p-16            	812322.86       	1799017.35      
 p-16            	812323.27       	1799027.38      
 p-16            	812324.19       	1799036.01      
 p-16            	812324.15       	1799039.75      
 p-16            	812323.52       	1799048.07      
 p-16            	812323.70       	1799052.20      
 p-17            	812528.41       	1798930.56      
 p-17            	812519.07       	1798933.97      
 p-17            	812507.10       	1798939.34      
 p-17            	812500.21       	1798942.63      
 p-17            	812485.79       	1798950.19      
 p-18            	812405.10       	1799065.76      
 p-18            	812407.76       	1799070.56      
 p-18            	812409.57       	1799079.28      
 p-18            	812411.53       	1799085.89      
 p-18            	812414.16       	1799096.23      
 p-18            	812415.07       	1799102.41      
 p-18            	812416.08       	1799109.71      
 p-18            	812416.56       	1799113.44      
 p-18            	812416.79       	1799119.77      
 p-20            	812176.48       	1798880.86      
 p-20            	812178.46       	1798884.92      
 p-20            	812182.22       	1798890.31      
 p-20            	812186.27       	1798899.76      
 p-20            	812189.35       	1798908.75      
 p-20            	812191.07       	1798913.71      
 p-20            	812192.94       	1798918.94      
 p-20            	812195.65       	1798927.97      
 p-20            	812197.48       	1798935.00      
 p-21            	812422.28       	1798924.68      
 p-21            	812423.32       	1798929.75      
 p-21            	812424.54       	1798933.93      
 p-21            	812425.97       	1798937.72      
 p-21            	812428.09       	1798946.54      
 p-21            	812430.35       	1798955.78      
 p-21            	812432.12       	1798963.98      
 p-21            	812432.73       	1798966.59      
 p-21            	812433.99       	1798971.36      
 p-22            	812187.78       	1798822.62      
 p-22            	812186.63       	1798832.85      
 p-22            	812185.42       	1798838.04      
 p-22            	812184.74       	1798847.56      
 p-22            	812183.78       	1798855.44      
 p-22            	812182.64       	1798860.39      
 p-22            	812179.77       	1798866.73      
 p-22            	812176.16       	1798873.26      
 p-23            	812184.31       	1798806.63      
 p-23            	812189.43       	1798804.00      
 p-23            	812193.29       	1798802.97      
 p-23            	812206.94       	1798797.58      
 p-23            	812212.15       	1798795.53      
 p-23            	812222.62       	1798791.72      
 p-24            	812142.62       	1799077.77      
 p-24            	812135.94       	1799091.74      
 p-24            	812131.90       	1799099.32      
 p-24            	812123.88       	1799114.76      
 p-25            	812584.66       	1799061.72      
 p-25            	812579.33       	1799063.18      
 p-25            	812571.50       	1799064.62      
 p-25            	812561.59       	1799066.87      
 p-25            	812551.43       	1799069.59      
 p-25            	812542.37       	1799072.10      
 p-25            	812538.00       	1799075.58      
 p-26            	812381.02       	1798928.86      
 p-26            	812383.81       	1798938.63      
 p-26            	812385.32       	1798943.49      
 p-26            	812387.70       	1798952.58      
 p-26            	812388.71       	1798956.94      
 p-26            	812390.34       	1798965.01      
 p-26            	812392.96       	1798970.78      
 p-26            	812393.77       	1798973.09      
 p-27            	812293.67       	1799106.82      
 p-27            	812293.38       	1799098.20      
 p-27            	812292.51       	1799093.53      
 p-27            	812291.20       	1799083.00      
 p-27            	812290.31       	1799073.66      
 p-27            	812290.47       	1799064.28      
 p-27            	812291.38       	1799058.84      
 p-29            	812417.80       	1799030.45      
 p-29            	812415.40       	1799026.91      
 p-31            	812228.61       	1798966.41      
 p-31            	812221.11       	1798970.67      
 p-31            	812211.53       	1798975.35      
 p-32            	812260.04       	1798950.53      
 p-32            	812266.20       	1798964.31      
 p-32            	812269.87       	1798970.20      
 p-32            	812278.12       	1798985.31      
 p-33            	812365.49       	1798975.81      
 p-33            	812363.93       	1798977.76      
 p-33            	812360.28       	1798978.93      
 p-33            	812351.71       	1798980.63      
 p-33            	812347.15       	1798981.80      
 p-33            	812342.25       	1798983.13      
 p-33            	812332.66       	1798985.14      
 p-33            	812326.29       	1798986.12      
 p-34            	812388.13       	1799281.76      
 p-34            	812385.24       	1799283.90      
 p-34            	812377.28       	1799289.92      
 p-34            	812365.03       	1799299.87      
 p-34            	812358.17       	1799306.11      
 p-35            	812172.53       	1798880.50      
 p-35            	812168.43       	1798887.40      
 p-35            	812165.73       	1798892.06      
 p-35            	812157.23       	1798910.02      
 p-36            	812265.73       	1798888.32      
 p-36            	812259.91       	1798889.68      
 p-36            	812247.80       	1798894.70      
 p-36            	812235.77       	1798898.07      
 p-36            	812233.59       	1798899.78      
 p-36            	812234.95       	1798908.19      
 p-36            	812236.96       	1798915.74      
 p-37            	812303.97       	1799112.06      
 p-37            	812309.37       	1799112.27      
 p-37            	812315.90       	1799112.09      
 p-37            	812326.39       	1799111.62      
 p-37            	812335.39       	1799110.55      
 p-38            	812239.04       	1798926.11      
 p-38            	812234.38       	1798926.65      
 p-38            	812217.40       	1798932.58      
 p-38            	812204.00       	1798935.70      
 p-39            	812328.28       	1799059.23      
 p-39            	812331.02       	1799059.60      
 p-39            	812337.52       	1799059.69      
 p-39            	812345.00       	1799060.80      
 p-39            	812351.39       	1799063.50      
 p-39            	812362.74       	1799062.81      
 p-40            	812489.15       	1799263.53      
 p-40            	812488.20       	1799276.65      
 p-40            	812487.70       	1799290.08      
 p-41            	812469.57       	1798954.14      
 p-41            	812469.34       	1798950.06      
 p-41            	812466.95       	1798942.68      
 p-41            	812466.35       	1798938.62      
 p-41            	812464.89       	1798935.12      
 p-41            	812462.01       	1798927.11      
 p-42            	812295.09       	1799184.35      
 p-42            	812294.11       	1799176.88      
 p-42            	812294.36       	1799173.63      
 p-42            	812293.65       	1799167.55      
 p-42            	812293.37       	1799159.39      
 p-42            	812293.17       	1799155.16      
 p-42            	812292.33       	1799146.55      
 p-43            	812173.20       	1798959.92      
 p-43            	812175.25       	1798970.52      
 p-43            	812180.72       	1798981.46      
 p-45            	812295.26       	1799189.83      
 p-45            	812294.63       	1799192.27      
 p-45            	812295.92       	1799197.28      
 p-45            	812298.06       	1799205.23      
 p-45            	812300.60       	1799220.19      
 p-45            	812300.39       	1799227.20      
 p-47            	812418.77       	1799135.44      
 p-47            	812421.16       	1799149.91      
 p-48            	812376.84       	1799247.79      
 p-48            	812383.21       	1799255.43      
 p-48            	812385.85       	1799260.30      
 p-48            	812388.33       	1799269.14      
 p-48            	812388.61       	1799273.51      
 p-49            	812273.56       	1798899.96      
 p-49            	812274.89       	1798904.19      
 p-49            	812278.77       	1798911.40      
 p-49            	812279.56       	1798916.43      
 p-49            	812280.19       	1798919.76      
 p-50            	812402.94       	1798978.45      
 p-50            	812411.19       	1798976.79      
 p-50            	812420.34       	1798976.69      
 p-50            	812429.50       	1798978.27      
 p-51            	812219.86       	1798809.23      
 p-51            	812226.73       	1798816.67      
 p-51            	812235.85       	1798831.64      
 p-51            	812238.84       	1798835.59      
 p-52            	812153.69       	1799002.89      
 p-52            	812146.25       	1799005.23      
 p-52            	812141.95       	1799006.50      
 p-52            	812135.52       	1799008.92      
 p-52            	812130.41       	1799011.31      
 p-53            	812448.70       	1798917.13      
 p-53            	812441.89       	1798919.01      
 p-53            	812436.22       	1798919.33      
 p-54            	812264.21       	1799112.67      
 p-54            	812274.30       	1799111.96      
 p-54            	812290.89       	1799111.62      
 p-55            	812295.63       	1799058.54      
 p-55            	812302.59       	1799057.98      
 p-55            	812310.40       	1799058.43      
 p-55            	812317.02       	1799058.04      
 p-56            	812380.82       	1799064.30      
 p-56            	812397.22       	1799063.05      
 p-57            	812584.03       	1799046.37      
 p-57            	812581.78       	1799036.61      
 p-59            	812405.40       	1799062.53      
 p-59            	812407.70       	1799061.79      
 p-59            	812423.42       	1799056.85      
 p-59            	812426.86       	1799055.99      
 p-60            	812599.59       	1799072.71      
 p-60            	812610.82       	1799067.22      
 p-60            	812613.29       	1799064.96      
 p-60            	812616.22       	1799061.89      
 p-60            	812616.88       	1799060.90      
 p-61            	812251.61       	1798927.54      
 p-61            	812259.49       	1798929.63      
 p-62            	812190.86       	1798938.79      
 p-62            	812182.33       	1798942.34      
 p-62            	812178.07       	1798943.65      
 p-62            	812172.56       	1798945.72      
 p-63            	812292.17       	1799139.18      
 p-63            	812292.62       	1799131.84      
 p-63            	812292.81       	1799127.71      
 p-63            	812292.90       	1799117.40      
 p-63            	812292.71       	1799114.79      
 p-64            	812159.40       	1798924.48      
 p-64            	812164.21       	1798934.48      
 p-64            	812166.10       	1798939.16      
 p-65            	812198.89       	1798815.43      
 p-65            	812203.60       	1798813.79      
 p-65            	812212.56       	1798809.69      
 p-66            	812254.07       	1799089.17      
 p-66            	812254.65       	1799094.58      
 p-66            	812255.36       	1799101.00      
 p-66            	812256.15       	1799107.89      
 p-67            	812287.50       	1798987.24      
 p-67            	812291.43       	1798985.79      
 p-67            	812293.30       	1798983.89      
 p-67            	812295.40       	1798980.03      
 p-67            	812298.04       	1798975.66      
 p-68            	812081.63       	1799198.99      
 p-69            	812247.02       	1798964.31      
 p-69            	812249.42       	1798967.96      
 p-69            	812250.27       	1798970.96      
 p-69            	812251.97       	1798978.09      
 p-72            	812238.87       	1798839.57      
 p-72            	812236.37       	1798840.79      
 p-72            	812230.07       	1798841.76      
 p-73            	812280.01       	1798993.51      
 p-73            	812279.63       	1798995.45      
 p-73            	812275.18       	1799008.25      
 p-74            	812181.91       	1798993.42      
 p-74            	812177.61       	1799002.26      
 p-75            	812482.49       	1799314.30      
 p-76            	812326.11       	1799065.61      
 p-76            	812327.31       	1799071.50      
 p-76            	812328.84       	1799077.35      
 p-77            	812370.22       	1799062.27      
 p-77            	812374.95       	1799054.30      
 p-77            	812375.38       	1799049.95      
 p-77            	812374.20       	1799044.89      
 p-78            	812511.63       	1799135.71      
 p-79            	812254.74       	1798949.82      
 p-80            	812532.14       	1799180.83      
 p-80            	812528.10       	1799190.28      
 p-81            	812228.91       	1798802.10      
 p-82            	812541.36       	1798938.22      
 p-83            	812160.35       	1798795.89      
 p-83            	812163.28       	1798798.98      
 p-84            	812271.05       	1798935.86      
 p-84            	812269.95       	1798936.64      
 p-85            	812591.32       	1799070.98      
 p-85            	812587.78       	1799065.69      
 p-86            	812162.60       	1799004.23      
 p-86            	812169.71       	1799006.94      
 p-87            	812277.78       	1798928.36      
 p-88            	812183.59       	1798813.80      
 p-88            	812188.36       	1798815.43      
 p-92            	812238.41       	1799084.47      
 p-93            	812151.11       	1799070.56      
 p-93            	812164.14       	1799072.01      
 p-93            	812182.62       	1799075.30      
 p-93            	812195.65       	1799077.85      
 p-93            	812218.92       	1799083.09      
 p-93            	812230.50       	1799083.71      
 p-94            	812161.92       	1799030.02      
 p-94            	812155.48       	1799045.38      
 p-94            	812149.55       	1799059.79      
 p-95            	812167.97       	1799016.82      
 p-96            	812267.96       	1798864.65      
 p-96            	812268.49       	1798874.40      
 p-96            	812268.57       	1798879.24      
 p-96            	812269.31       	1798884.01      
 p-97            	812245.36       	1798842.25      
 p-97            	812256.93       	1798850.26      
 p-97            	812261.86       	1798853.97      
 p-97            	812264.24       	1798856.49      
 p-98            	812285.82       	1799291.78      
 p-99            	812316.10       	1799270.61      
 p-100           	812266.27       	1799011.91      
 p-100           	812260.48       	1799010.10      
 p-100           	812257.26       	1799010.16      
 p-100           	812251.03       	1799012.47      
 p-100           	812247.55       	1799016.68      
 p-100           	812246.61       	1799023.46      
 p-100           	812246.87       	1799025.93      
 p-101           	812287.77       	1799049.02      
 p-101           	812284.33       	1799040.62      
 p-101           	812279.69       	1799033.99      
 p-101           	812275.68       	1799026.57      
 p-101           	812273.45       	1799017.62      
 p-101           	812270.66       	1799014.42      
 p-103           	812695.05       	1799274.13      
 p-103           	812709.71       	1799219.48      
 p-103           	812715.62       	1799195.37      
 p-105           	812694.51       	1799274.53      
 p-106           	812590.43       	1799166.37      
 p-107           	812292.35       	1799184.13      
 p-107           	812280.52       	1799181.69      
 p-107           	812272.08       	1799181.64      
 p-107           	812267.54       	1799181.48      
 p-107           	812257.14       	1799181.64      
 p-107           	812245.91       	1799180.50      
 p-107           	812233.99       	1799180.13      
 p-107           	812218.86       	1799181.42      
 p-107           	812214.56       	1799182.00      
 p-107           	812205.86       	1799182.83      
 p-107           	812201.37       	1799183.07      
 p-107           	812187.93       	1799184.75      
 p-107           	812176.88       	1799186.89      
 p-107           	812164.89       	1799188.99      
 p-107           	812147.94       	1799190.45      
 p-107           	812138.69       	1799191.13      
 p-107           	812121.03       	1799189.18      
 p-107           	812107.93       	1799189.54      
 p-107           	812098.09       	1799191.98      
 p-107           	812092.05       	1799191.19      
 p-108           	812555.43       	1799263.22      
 p-108           	812540.63       	1799252.66      
 p-108           	812532.79       	1799238.41      
 p-108           	812532.62       	1799219.58      
 p-108           	812538.49       	1799198.57      
 p-108           	812541.26       	1799180.94      
 p-108           	812532.96       	1799173.34      
 p-108           	812526.13       	1799168.44      
 p-109           	812126.33       	1799125.63      
 p-109           	812128.54       	1799125.63      
 p-109           	812134.91       	1799127.08      
 p-109           	812142.59       	1799128.80      
 p-109           	812146.93       	1799129.06      
 p-109           	812157.19       	1799128.89      
 p-109           	812173.66       	1799132.47      
 p-109           	812177.28       	1799133.18      
 p-109           	812185.79       	1799133.74      
 p-109           	812195.51       	1799134.31      
 p-109           	812201.05       	1799134.74      
 p-109           	812206.47       	1799135.50      
 p-109           	812217.51       	1799137.15      
 p-109           	812228.80       	1799138.76      
 p-109           	812240.60       	1799140.12      
 p-109           	812251.99       	1799141.57      
 p-109           	812257.62       	1799142.25      
 p-109           	812267.48       	1799143.23      
 p-109           	812281.44       	1799143.13      
 p-110           	812478.65       	1799304.31      
 p-110           	812472.85       	1799305.99      
 p-110           	812466.27       	1799307.69      
 p-110           	812463.06       	1799308.84      
 p-110           	812455.40       	1799312.26      
 p-110           	812451.39       	1799314.67      
 p-110           	812443.96       	1799319.19      
 p-110           	812436.05       	1799323.82      
 p-110           	812423.20       	1799332.53      
 p-110           	812418.05       	1799335.21      
 p-110           	812411.97       	1799337.78      
 p-110           	812405.44       	1799340.43      
 p-110           	812395.58       	1799347.05      
 p-110           	812387.36       	1799348.32      
 p-110           	812380.61       	1799347.90      
 p-110           	812374.70       	1799348.00      
 p-110           	812370.43       	1799346.90      
 p-110           	812362.49       	1799348.15      
 p-110           	812355.54       	1799350.72      
 p-110           	812335.73       	1799358.78      
 p-111           	812497.88       	1799166.18      
 p-111           	812489.03       	1799172.41      
 p-111           	812483.76       	1799175.68      
 p-111           	812472.93       	1799181.20      
 p-111           	812462.98       	1799187.89      
 p-111           	812457.85       	1799191.50      
 p-111           	812446.87       	1799196.92      
 p-111           	812436.70       	1799202.26      
 p-111           	812429.50       	1799209.01      
 p-111           	812426.57       	1799212.33      
 p-111           	812419.59       	1799216.62      
 p-111           	812411.84       	1799220.53      
 p-111           	812401.48       	1799226.31      
 p-111           	812396.19       	1799229.01      
 p-111           	812387.81       	1799234.53      
 p-111           	812380.53       	1799239.49      
 p-112           	812395.56       	1799278.63      
 p-112           	812403.00       	1799275.91      
 p-112           	812411.16       	1799269.77      
 p-112           	812415.62       	1799266.63      
 p-112           	812424.72       	1799261.11      
 p-112           	812432.55       	1799256.99      
 p-112           	812439.34       	1799254.76      
 p-112           	812445.90       	1799248.57      
 p-112           	812454.72       	1799243.21      
 p-112           	812463.21       	1799236.87      
 p-112           	812473.07       	1799229.20      
 p-112           	812477.89       	1799225.43      
 p-112           	812487.73       	1799218.80      
 p-112           	812496.39       	1799211.13      
 p-112           	812504.51       	1799203.60      
 p-112           	812511.74       	1799198.97      
 p-112           	812518.44       	1799197.00      
 p-113           	812369.27       	1799327.65      
 p-113           	812386.31       	1799323.40      
 p-113           	812392.93       	1799319.18      
 p-113           	812400.81       	1799313.44      
 p-113           	812408.86       	1799307.69      
 p-113           	812416.17       	1799301.64      
 p-113           	812423.16       	1799297.01      
 p-113           	812430.58       	1799294.67      
 p-113           	812437.98       	1799291.54      
 p-113           	812442.75       	1799286.27      
 p-113           	812447.56       	1799283.12      
 p-113           	812457.25       	1799276.79      
 p-113           	812464.54       	1799272.71      
 p-113           	812470.92       	1799268.59      
 p-113           	812478.55       	1799263.80      
 p-114           	812416.86       	1799172.70      
 p-114           	812408.23       	1799174.55      
 p-114           	812397.61       	1799176.67      
 p-114           	812385.90       	1799179.43      
 p-114           	812374.31       	1799181.68      
 p-114           	812369.06       	1799182.28      
 p-114           	812357.67       	1799183.52      
 p-114           	812344.91       	1799185.58      
 p-114           	812331.76       	1799186.92      
 p-114           	812319.57       	1799188.00      
 p-114           	812313.86       	1799188.48      
 p-114           	812303.57       	1799189.17      
 p-114           	812297.43       	1799188.12      
 p-115           	812407.61       	1799129.53      
 p-115           	812395.21       	1799129.02      
 p-115           	812381.01       	1799131.30      
 p-115           	812359.47       	1799134.89      
 p-115           	812345.61       	1799136.73      
 p-115           	812332.24       	1799138.36      
 p-115           	812314.53       	1799139.77      
 p-115           	812309.50       	1799140.42      
 p-115           	812297.76       	1799141.26      
 p-116           	812479.09       	1799328.24      
 p-116           	812478.40       	1799332.51      
 p-116           	812476.16       	1799345.34      
 p-116           	812474.86       	1799351.97      
 p-116           	812470.74       	1799365.14      
 p-116           	812467.03       	1799383.00      
 p-116           	812465.89       	1799389.84      
 p-116           	812462.27       	1799397.33      
 p-116           	812459.85       	1799405.29      
 p-116           	812456.95       	1799407.71      
 p-116           	812452.71       	1799415.19      
 p-116           	812441.15       	1799421.03      
 p-116           	812436.50       	1799423.39      
 p-116           	812429.30       	1799428.85      
 p-117           	812575.94       	1799030.82      
 p-117           	812568.63       	1799033.31      
 p-117           	812559.15       	1799034.80      
 p-117           	812554.04       	1799035.88      
 p-117           	812548.78       	1799037.24      
 p-117           	812535.36       	1799039.62      
 p-118           	812561.05       	1799321.04      
 p-118           	812522.15       	1799327.45      
 p-118           	812485.36       	1799330.30      
 p-119           	812295.90       	1799232.09      
 p-119           	812291.77       	1799232.74      
 p-119           	812282.48       	1799233.71      
 p-119           	812272.41       	1799234.84      
 p-119           	812258.25       	1799235.10      
 p-119           	812253.75       	1799235.16      
 p-119           	812245.18       	1799234.09      
 p-119           	812236.52       	1799232.01      
 p-119           	812229.07       	1799231.69      
 p-119           	812222.31       	1799232.23      
 p-119           	812213.99       	1799233.37      
 p-119           	812201.25       	1799234.13      
 p-119           	812193.92       	1799236.09      
 p-119           	812191.17       	1799239.92      
 p-120           	812444.90       	1799062.87      
 p-120           	812449.81       	1799070.02      
 p-120           	812454.48       	1799077.01      
 p-120           	812463.72       	1799089.81      
 p-120           	812471.17       	1799100.65      
 p-120           	812474.11       	1799105.76      
 p-120           	812484.20       	1799118.48      
 p-120           	812490.78       	1799124.53      
 p-120           	812498.96       	1799135.15      
 p-121           	812469.14       	1799057.69      
 p-121           	812480.20       	1799070.82      
 p-121           	812486.35       	1799077.39      
 p-121           	812491.43       	1799085.22      
 p-121           	812496.82       	1799092.28      
 p-121           	812502.36       	1799099.94      
 p-121           	812508.57       	1799108.67      
 p-121           	812514.29       	1799117.82      
 p-121           	812520.25       	1799126.87      

[LABELS]
;X-Coord           Y-Coord          Label & Anchor Node

[BACKDROP]
 DIMENSIONS     	812031.22       	1798734.89      	812748.12       	1799467.75      
 UNITS          	None
 FILE           	
 OFFSET         	0.00            	0.00            

[END]
