[TITLE]


[JUNCTIONS]
;ID              	Elev        	Demand      	Pattern         
 I-AV-1          	892.4       	0           	                	;
 I-AV-10         	887.7       	0           	                	;
 I-AV-100        	868.2       	0           	                	;
 I-AV-101        	887.8       	0           	                	;
 I-AV-102        	837.8       	0           	                	;
 I-AV-103        	888.7       	0           	                	;
 I-AV-104        	887.1       	0           	                	;
 I-AV-105        	847.9       	0           	                	;
 I-AV-106        	851.8       	0           	                	;
 I-AV-107        	845.9       	0           	                	;
 I-AV-108        	843.8       	0           	                	;
 I-AV-109        	846.3       	0           	                	;
 I-AV-11         	888.5       	0           	                	;
 I-AV-110        	871.3       	0           	                	;
 I-AV-111        	871.3       	0           	                	;
 I-AV-112        	869.5       	0           	                	;
 I-AV-113        	869.7       	0           	                	;
 I-AV-114        	839.3       	0           	                	;
 I-AV-115        	869.8       	0           	                	;
 I-AV-116        	870.1       	0           	                	;
 I-AV-117        	855.1       	0           	                	;
 I-AV-118        	855.4       	0           	                	;
 I-AV-119        	871.3       	0           	                	;
 I-AV-12         	885.8       	0           	                	;
 I-AV-120        	872.2       	0           	                	;
 I-AV-121        	872.9       	0           	                	;
 I-AV-122        	872.7       	0           	                	;
 I-AV-123        	872.5       	0           	                	;
 I-AV-124        	849.1       	0           	                	;
 I-AV-125        	861.3       	0           	                	;
 I-AV-126        	858.8       	0           	                	;
 I-AV-127        	835.2       	0           	                	;
 I-AV-128        	841.3       	0           	                	;
 I-AV-129        	849.5       	0           	                	;
 I-AV-13         	871.1       	0           	                	;
 I-AV-130        	843.4       	0           	                	;
 I-AV-131        	860.1       	0           	                	;
 I-AV-132        	859.3       	0           	                	;
 I-AV-133        	858.7       	0           	                	;
 I-AV-134        	855         	0           	                	;
 I-AV-135        	863.1       	0           	                	;
 I-AV-136        	852.9       	0           	                	;
 I-AV-137        	829.9       	0           	                	;
 I-AV-138        	834.1       	0           	                	;
 I-AV-139        	866.7       	0           	                	;
 I-AV-14         	871.3       	0           	                	;
 I-AV-140        	929.1       	0           	                	;
 I-AV-141        	924.9       	0           	                	;
 I-AV-142        	918.3       	0           	                	;
 I-AV-143        	900         	0           	                	;
 I-AV-144        	900.2       	0           	                	;
 I-AV-145        	901.8       	0           	                	;
 I-AV-146        	863.1       	0           	                	;
 I-AV-147        	920.7       	0           	                	;
 I-AV-148        	833.3       	0           	                	;
 I-AV-149        	834.8       	0           	                	;
 I-AV-15         	843.9       	0           	                	;
 I-AV-150        	812.5       	0           	                	;
 I-AV-151        	821.4       	0           	                	;
 I-AV-152        	821.6       	0           	                	;
 I-AV-153        	838.1       	0           	                	;
 I-AV-154        	841.5       	0           	                	;
 I-AV-155        	850.8       	0           	                	;
 I-AV-156        	852.3       	0           	                	;
 I-AV-157        	865.6       	0           	                	;
 I-AV-158        	837.1       	0           	                	;
 I-AV-159        	836.2       	0           	                	;
 I-AV-16         	861.6       	0           	                	;
 I-AV-160        	836.9       	0           	                	;
 I-AV-161        	833.5       	0           	                	;
 I-AV-162        	827.3       	0           	                	;
 I-AV-163        	834.8       	0           	                	;
 I-AV-164        	842.4       	0           	                	;
 I-AV-165        	825.3       	0           	                	;
 I-AV-166        	825.3       	0           	                	;
 I-AV-167        	816.3       	0           	                	;
 I-AV-168        	873.5       	0           	                	;
 I-AV-169        	816.6       	0           	                	;
 I-AV-17         	860.5       	0           	                	;
 I-AV-170        	817.5       	0           	                	;
 I-AV-171        	842.3       	0           	                	;
 I-AV-172        	842.4       	0           	                	;
 I-AV-173        	807.9       	0           	                	;
 I-AV-174        	832.6       	0           	                	;
 I-AV-175        	834.2       	0           	                	;
 I-AV-176        	836.8       	0           	                	;
 I-AV-177        	838.3       	0           	                	;
 I-AV-178        	856.6       	0           	                	;
 I-AV-179        	879.7       	0           	                	;
 I-AV-18         	859.2       	0           	                	;
 I-AV-180        	856.6       	0           	                	;
 I-AV-181        	856.6       	0           	                	;
 I-AV-182        	854.4       	0           	                	;
 I-AV-183        	867.2       	0           	                	;
 I-AV-184        	869.8       	0           	                	;
 I-AV-185        	833.1       	0           	                	;
 I-AV-186        	834         	0           	                	;
 I-AV-187        	835.2       	0           	                	;
 I-AV-188        	813.6       	0           	                	;
 I-AV-189        	815.6       	0           	                	;
 I-AV-19         	852.5       	0           	                	;
 I-AV-190        	833.5       	0           	                	;
 I-AV-191        	807.2       	0           	                	;
 I-AV-192        	806.2       	0           	                	;
 I-AV-193        	804.2       	0           	                	;
 I-AV-194        	809.1       	0           	                	;
 I-AV-195        	835.4       	0           	                	;
 I-AV-196        	869         	0           	                	;
 I-AV-197        	868.1       	0           	                	;
 I-AV-198        	870         	0           	                	;
 I-AV-199        	816.4       	0           	                	;
 I-AV-2          	875         	0           	                	;
 I-AV-20         	849.7       	0           	                	;
 I-AV-200        	868.1       	0           	                	;
 I-AV-201        	849.5       	0           	                	;
 I-AV-202        	849.3       	0           	                	;
 I-AV-204        	843         	0           	                	;
 I-AV-205        	843.3       	0           	                	;
 I-AV-206        	851.5       	0           	                	;
 I-AV-207        	852.8       	0           	                	;
 I-AV-208        	857.8       	0           	                	;
 I-AV-209        	857.1       	0           	                	;
 I-AV-21         	844.9       	0           	                	;
 I-AV-210        	843.5       	0           	                	;
 I-AV-211        	856.9       	0           	                	;
 I-AV-212        	859.7       	0           	                	;
 I-AV-213        	850.5       	0           	                	;
 I-AV-214        	853.3       	0           	                	;
 I-AV-215        	848.8       	0           	                	;
 I-AV-216        	847.6       	0           	                	;
 I-AV-217        	805.2       	0           	                	;
 I-AV-218        	805         	0           	                	;
 I-AV-219        	794.7       	0           	                	;
 I-AV-22         	847.3       	0           	                	;
 I-AV-220        	797.6       	0           	                	;
 I-AV-221        	890.8       	0           	                	;
 I-AV-222        	848.1       	0           	                	;
 I-AV-223        	797.6       	0           	                	;
 I-AV-224        	796.2       	0           	                	;
 I-AV-225        	815.4       	0           	                	;
 I-AV-226        	840         	0           	                	;
 I-AV-227        	852.9       	0           	                	;
 I-AV-228        	842.6       	0           	                	;
 I-AV-229        	832.9       	0           	                	;
 I-AV-23         	838.8       	0           	                	;
 I-AV-230        	859.6       	0           	                	;
 I-AV-231        	860.3       	0           	                	;
 I-AV-232        	860.7       	0           	                	;
 I-AV-233        	806.8       	0           	                	;
 I-AV-234        	860.4       	0           	                	;
 I-AV-235        	860.3       	0           	                	;
 I-AV-236        	860.4       	0           	                	;
 I-AV-237        	860.4       	0           	                	;
 I-AV-238        	858.9       	0           	                	;
 I-AV-239        	859.4       	0           	                	;
 I-AV-24         	839.1       	0           	                	;
 I-AV-240        	859.4       	0           	                	;
 I-AV-241        	859.4       	0           	                	;
 I-AV-242        	855.6       	0           	                	;
 I-AV-243        	855.3       	0           	                	;
 I-AV-244        	829.8       	0           	                	;
 I-AV-245        	828.4       	0           	                	;
 I-AV-246        	844.9       	0           	                	;
 I-AV-247        	848.1       	0           	                	;
 I-AV-248        	835         	0           	                	;
 I-AV-249        	836.1       	0           	                	;
 I-AV-25         	837.6       	0           	                	;
 I-AV-250        	835         	0           	                	;
 I-AV-251        	837.9       	0           	                	;
 I-AV-252        	861.7       	0           	                	;
 I-AV-253        	873.7       	0           	                	;
 I-AV-254        	830.3       	0           	                	;
 I-AV-255        	873.1       	0           	                	;
 I-AV-256        	875.7       	0           	                	;
 I-AV-257        	872         	0           	                	;
 I-AV-258        	873.4       	0           	                	;
 I-AV-259        	871.7       	0           	                	;
 I-AV-26         	836.5       	0           	                	;
 I-AV-260        	881.7       	0           	                	;
 I-AV-261        	883.3       	0           	                	;
 I-AV-262        	884         	0           	                	;
 I-AV-263        	881.4       	0           	                	;
 I-AV-264        	847.3       	0           	                	;
 I-AV-265        	868.2       	0           	                	;
 I-AV-266        	868.9       	0           	                	;
 I-AV-267        	867.9       	0           	                	;
 I-AV-268        	844.5       	0           	                	;
 I-AV-269        	840.4       	0           	                	;
 I-AV-27         	927.6       	0           	                	;
 I-AV-270        	794.7       	0           	                	;
 I-AV-271        	797.8       	0           	                	;
 I-AV-272        	810.6       	0           	                	;
 I-AV-273        	819         	0           	                	;
 I-AV-274        	817.9       	0           	                	;
 I-AV-275        	849.3       	0           	                	;
 I-AV-276        	841.4       	0           	                	;
 I-AV-277        	852.2       	0           	                	;
 I-AV-278        	853.1       	0           	                	;
 I-AV-279        	850.3       	0           	                	;
 I-AV-28         	917.8       	0           	                	;
 I-AV-280        	787.9       	0           	                	;
 I-AV-281        	793.4       	0           	                	;
 I-AV-282        	794.3       	0           	                	;
 I-AV-283        	797.7       	0           	                	;
 I-AV-284        	811.4       	0           	                	;
 I-AV-285        	810.7       	0           	                	;
 I-AV-286        	849.5       	0           	                	;
 I-AV-287        	834         	0           	                	;
 I-AV-288        	834         	0           	                	;
 I-AV-289        	834.6       	0           	                	;
 I-AV-29         	912.7       	0           	                	;
 I-AV-290        	822.1       	0           	                	;
 I-AV-291        	805.5       	0           	                	;
 I-AV-292        	802.6       	0           	                	;
 I-AV-293        	809.9       	0           	                	;
 I-AV-294        	809.4       	0           	                	;
 I-AV-295        	807.9       	0           	                	;
 I-AV-296        	808.9       	0           	                	;
 I-AV-297        	849.3       	0           	                	;
 I-AV-298        	811.2       	0           	                	;
 I-AV-299        	811.4       	0           	                	;
 I-AV-3          	824.7       	0           	                	;
 I-AV-30         	904.4       	0           	                	;
 I-AV-300        	796.9       	0           	                	;
 I-AV-301        	796.7       	0           	                	;
 I-AV-302        	798.1       	0           	                	;
 I-AV-303        	796.3       	0           	                	;
 I-AV-304        	790.1       	0           	                	;
 I-AV-305        	789.5       	0           	                	;
 I-AV-306        	791.1       	0           	                	;
 I-AV-307        	792.6       	0           	                	;
 I-AV-308        	877         	0           	                	;
 I-AV-309        	792.8       	0           	                	;
 I-AV-31         	907.7       	0           	                	;
 I-AV-310        	808.4       	0           	                	;
 I-AV-311        	803.7       	0           	                	;
 I-AV-312        	806.5       	0           	                	;
 I-AV-313        	803.9       	0           	                	;
 I-AV-314        	797.9       	0           	                	;
 I-AV-315        	783.8       	0           	                	;
 I-AV-316        	816.9       	0           	                	;
 I-AV-317        	820.3       	0           	                	;
 I-AV-318        	819.9       	0           	                	;
 I-AV-319        	877         	0           	                	;
 I-AV-32         	903.5       	0           	                	;
 I-AV-320        	820.4       	0           	                	;
 I-AV-321        	808.6       	0           	                	;
 I-AV-322        	806.8       	0           	                	;
 I-AV-323        	792.4       	0           	                	;
 I-AV-324        	789.1       	0           	                	;
 I-AV-325        	817.7       	0           	                	;
 I-AV-326        	816.4       	0           	                	;
 I-AV-327        	818.4       	0           	                	;
 I-AV-328        	803.4       	0           	                	;
 I-AV-329        	834.1       	0           	                	;
 I-AV-33         	910.3       	0           	                	;
 I-AV-330        	895.4       	0           	                	;
 I-AV-331        	879         	0           	                	;
 I-AV-332        	834.9       	0           	                	;
 I-AV-333        	835.5       	0           	                	;
 I-AV-334        	836.2       	0           	                	;
 I-AV-335        	836.2       	0           	                	;
 I-AV-336        	835.5       	0           	                	;
 I-AV-337        	852.6       	0           	                	;
 I-AV-338        	790.3       	0           	                	;
 I-AV-339        	790         	0           	                	;
 I-AV-34         	909.5       	0           	                	;
 I-AV-340        	838.8       	0           	                	;
 I-AV-341        	846.9       	0           	                	;
 I-AV-342        	862.3       	0           	                	;
 I-AV-343        	842.2       	0           	                	;
 I-AV-344        	838.9       	0           	                	;
 I-AV-345        	801.4       	0           	                	;
 I-AV-346        	794.3       	0           	                	;
 I-AV-347        	806.5       	0           	                	;
 I-AV-348        	818.7       	0           	                	;
 I-AV-349        	864.9       	0           	                	;
 I-AV-35         	891.1       	0           	                	;
 I-AV-350        	863.8       	0           	                	;
 I-AV-351        	846.9       	0           	                	;
 I-AV-352        	850.2       	0           	                	;
 I-AV-353        	854.2       	0           	                	;
 I-AV-354        	872.4       	0           	                	;
 I-AV-355        	810         	0           	                	;
 I-AV-356        	809.8       	0           	                	;
 I-AV-357        	808.2       	0           	                	;
 I-AV-358        	816.5       	0           	                	;
 I-AV-359        	845.3       	0           	                	;
 I-AV-36         	921.4       	0           	                	;
 I-AV-360        	851.7       	0           	                	;
 I-AV-361        	858.6       	0           	                	;
 I-AV-362        	859.7       	0           	                	;
 I-AV-363        	848.2       	0           	                	;
 I-AV-364        	856.1       	0           	                	;
 I-AV-365        	849.6       	0           	                	;
 I-AV-366        	843.6       	0           	                	;
 I-AV-367        	848.2       	0           	                	;
 I-AV-368        	853.6       	0           	                	;
 I-AV-369        	853.3       	0           	                	;
 I-AV-37         	847         	0           	                	;
 I-AV-370        	810.2       	0           	                	;
 I-AV-371        	809.6       	0           	                	;
 I-AV-372        	809.2       	0           	                	;
 I-AV-373        	809.2       	0           	                	;
 I-AV-374        	806.9       	0           	                	;
 I-AV-375        	858.8       	0           	                	;
 I-AV-376        	805         	0           	                	;
 I-AV-377        	856.4       	0           	                	;
 I-AV-378        	865.7       	0           	                	;
 I-AV-379        	867.9       	0           	                	;
 I-AV-38         	913.5       	0           	                	;
 I-AV-380        	869.8       	0           	                	;
 I-AV-381        	853.9       	0           	                	;
 I-AV-382        	857.8       	0           	                	;
 I-AV-383        	859.7       	0           	                	;
 I-AV-384        	857.8       	0           	                	;
 I-AV-385        	821.8       	0           	                	;
 I-AV-386        	865.3       	0           	                	;
 I-AV-387        	810.9       	0           	                	;
 I-AV-388        	811.8       	0           	                	;
 I-AV-389        	843.6       	0           	                	;
 I-AV-39         	914.9       	0           	                	;
 I-AV-390        	845.2       	0           	                	;
 I-AV-391        	835.1       	0           	                	;
 I-AV-392        	837         	0           	                	;
 I-AV-393        	832.5       	0           	                	;
 I-AV-394        	870.3       	0           	                	;
 I-AV-395        	870.3       	0           	                	;
 I-AV-396        	869         	0           	                	;
 I-AV-397        	866.5       	0           	                	;
 I-AV-398        	867.5       	0           	                	;
 I-AV-399        	824         	0           	                	;
 I-AV-4          	874.6       	0           	                	;
 I-AV-40         	878.4       	0           	                	;
 I-AV-400        	822.5       	0           	                	;
 I-AV-401        	823.1       	0           	                	;
 I-AV-402        	814.6       	0           	                	;
 I-AV-403        	810.8       	0           	                	;
 I-AV-404        	803.2       	0           	                	;
 I-AV-405        	867.9       	0           	                	;
 I-AV-406        	867.9       	0           	                	;
 I-AV-407        	867.7       	0           	                	;
 I-AV-408        	869.4       	0           	                	;
 I-AV-409        	822.9       	0           	                	;
 I-AV-41         	878.5       	0           	                	;
 I-AV-410        	821.1       	0           	                	;
 I-AV-411        	870.4       	0           	                	;
 I-AV-412        	863.2       	0           	                	;
 I-AV-413        	831.7       	0           	                	;
 I-AV-414        	893.3       	0           	                	;
 I-AV-415        	833.1       	0           	                	;
 I-AV-416        	833.8       	0           	                	;
 I-AV-417        	833         	0           	                	;
 I-AV-418        	825.1       	0           	                	;
 I-AV-419        	829.5       	0           	                	;
 I-AV-42         	879.1       	0           	                	;
 I-AV-420        	847.9       	0           	                	;
 I-AV-421        	847.9       	0           	                	;
 I-AV-422        	858.6       	0           	                	;
 I-AV-423        	845.9       	0           	                	;
 I-AV-424        	851.9       	0           	                	;
 I-AV-425        	873.8       	0           	                	;
 I-AV-426        	863.2       	0           	                	;
 I-AV-427        	882.9       	0           	                	;
 I-AV-428        	883.4       	0           	                	;
 I-AV-429        	882.1       	0           	                	;
 I-AV-43         	875.9       	0           	                	;
 I-AV-430        	874.6       	0           	                	;
 I-AV-431        	876.5       	0           	                	;
 I-AV-432        	889.6       	0           	                	;
 I-AV-433        	894.8       	0           	                	;
 I-AV-434        	897.1       	0           	                	;
 I-AV-435        	870.2       	0           	                	;
 I-AV-436        	873.4       	0           	                	;
 I-AV-437        	859.8       	0           	                	;
 I-AV-438        	859.7       	0           	                	;
 I-AV-439        	862.4       	0           	                	;
 I-AV-44         	860.4       	0           	                	;
 I-AV-440        	861.6       	0           	                	;
 I-AV-441        	886.6       	0           	                	;
 I-AV-442        	886.6       	0           	                	;
 I-AV-443        	888.8       	0           	                	;
 I-AV-444        	846.7       	0           	                	;
 I-AV-445        	862         	0           	                	;
 I-AV-446        	859.7       	0           	                	;
 I-AV-447        	878         	0           	                	;
 I-AV-448        	902         	0           	                	;
 I-AV-449        	902.9       	0           	                	;
 I-AV-45         	860.7       	0           	                	;
 I-AV-450        	917         	0           	                	;
 I-AV-451        	884.3       	0           	                	;
 I-AV-452        	900.3       	0           	                	;
 I-AV-453        	899.7       	0           	                	;
 I-AV-454        	878.2       	0           	                	;
 I-AV-455        	878.8       	0           	                	;
 I-AV-456        	871.6       	0           	                	;
 I-AV-457        	872.8       	0           	                	;
 I-AV-458        	872.7       	0           	                	;
 I-AV-459        	859.1       	0           	                	;
 I-AV-46         	868.7       	0           	                	;
 I-AV-460        	844.9       	0           	                	;
 I-AV-461        	839.9       	0           	                	;
 I-AV-462        	830.1       	0           	                	;
 I-AV-463        	833.8       	0           	                	;
 I-AV-464        	834         	0           	                	;
 I-AV-465        	835.2       	0           	                	;
 I-AV-466        	842         	0           	                	;
 I-AV-467        	849.4       	0           	                	;
 I-AV-468        	864.5       	0           	                	;
 I-AV-47         	882.8       	0           	                	;
 I-AV-48         	844.1       	0           	                	;
 I-AV-49         	894.8       	0           	                	;
 I-AV-5          	861.7       	0           	                	;
 I-AV-50         	894.7       	0           	                	;
 I-AV-51         	901.8       	0           	                	;
 I-AV-52         	901.2       	0           	                	;
 I-AV-53         	901.8       	0           	                	;
 I-AV-54         	902.6       	0           	                	;
 I-AV-55         	901.8       	0           	                	;
 I-AV-56         	902.6       	0           	                	;
 I-AV-57         	898.6       	0           	                	;
 I-AV-58         	898.1       	0           	                	;
 I-AV-59         	845.4       	0           	                	;
 I-AV-6          	873.4       	0           	                	;
 I-AV-60         	898.1       	0           	                	;
 I-AV-61         	898         	0           	                	;
 I-AV-62         	897         	0           	                	;
 I-AV-63         	897.5       	0           	                	;
 I-AV-64         	885.8       	0           	                	;
 I-AV-65         	892.1       	0           	                	;
 I-AV-66         	893         	0           	                	;
 I-AV-67         	893.5       	0           	                	;
 I-AV-68         	892         	0           	                	;
 I-AV-69         	891.1       	0           	                	;
 I-AV-7          	887.4       	0           	                	;
 I-AV-70         	839.8       	0           	                	;
 I-AV-71         	892.3       	0           	                	;
 I-AV-72         	882.1       	0           	                	;
 I-AV-73         	892.4       	0           	                	;
 I-AV-74         	858.3       	0           	                	;
 I-AV-75         	864.1       	0           	                	;
 I-AV-76         	869.7       	0           	                	;
 I-AV-77         	864.4       	0           	                	;
 I-AV-78         	864.2       	0           	                	;
 I-AV-79         	860.1       	0           	                	;
 I-AV-8          	888.1       	0           	                	;
 I-AV-80         	858.2       	0           	                	;
 I-AV-81         	838.2       	0           	                	;
 I-AV-82         	897.6       	0           	                	;
 I-AV-83         	897.7       	0           	                	;
 I-AV-84         	897.1       	0           	                	;
 I-AV-85         	868         	0           	                	;
 I-AV-86         	868.6       	0           	                	;
 I-AV-87         	868.5       	0           	                	;
 I-AV-88         	872.8       	0           	                	;
 I-AV-89         	872.6       	0           	                	;
 I-AV-9          	888.5       	0           	                	;
 I-AV-90         	873.1       	0           	                	;
 I-AV-91         	861.1       	0           	                	;
 I-AV-92         	825.6       	0           	                	;
 I-AV-93         	860.5       	0           	                	;
 I-AV-94         	852.5       	0           	                	;
 I-AV-95         	852.5       	0           	                	;
 I-AV-96         	852.2       	0           	                	;
 I-AV-97         	868.3       	0           	                	;
 I-AV-98         	858.2       	0           	                	;
 I-AV-99         	868.6       	0           	                	;
 I-Pump-1        	789         	0           	                	;
 I-Pump-2        	789         	0           	                	;
 I-Pump-3        	892.4       	0           	                	;
 J-1             	902.2       	0           	                	;
 J-10            	884         	7.13194     	2               	;
 J-100           	813.2       	0.4213      	3               	;
 J-101           	806.2       	0.18056     	3               	;
 J-102           	870.7       	2.06481     	2               	;
 J-103           	863.1       	0           	                	;
 J-104           	854.9       	0           	                	;
 J-105           	857.2       	0.06019     	3               	;
 J-106           	825.9       	0.15509     	2               	;
 J-107           	873.4       	0           	                	;
 J-108           	843.5       	0.22917     	3               	;
 J-109           	854.2       	0.90509     	3               	;
 J-11            	783.8       	0           	                	;
 J-110           	909.9       	1.52083     	3               	;
 J-111           	916.9       	0           	                	;
 J-112           	922.6       	2.41898     	2               	;
 J-113           	896         	0           	                	;
 J-114           	897         	0.32639     	3               	;
 J-115           	892.8       	0.26852     	3               	;
 J-116           	841         	1.75231     	3               	;
 J-117           	907         	0           	                	;
 J-118           	835.5       	1.52083     	3               	;
 J-119           	862.2       	0           	                	;
 J-12            	797.2       	2.22454     	1               	;
 J-120           	832.7       	0.86111     	3               	;
 J-121           	835.6       	0           	                	;
 J-122           	903.6       	0           	                	;
 J-123           	848.2       	0           	                	;
 J-124           	853.4       	0           	                	;
 J-125           	869.5       	1.96296     	3               	;
 J-126           	902.6       	2.74537     	3               	;
 J-127           	805.1       	0.01852     	3               	;
 J-128           	804.2       	0           	                	;
 J-129           	835.2       	0.19907     	3               	;
 J-13            	872.7       	0           	                	;
 J-130           	837.6       	0           	                	;
 J-131           	837.6       	0.15046     	1               	;
 J-132           	842.7       	0.53704     	3               	;
 J-133           	877.1       	1.74306     	3               	;
 J-134           	896.3       	0.60417     	3               	;
 J-135           	832         	0.75        	3               	;
 J-136           	843         	0.78935     	3               	;
 J-137           	884.2       	0           	                	;
 J-138           	897.6       	0.92824     	3               	;
 J-139           	860         	0           	                	;
 J-14            	875.9       	1.25231     	1               	;
 J-140           	863.6       	0           	                	;
 J-141           	844         	0           	                	;
 J-142           	829.3       	0           	                	;
 J-143           	888.4       	0.01852     	1               	;
 J-144           	942.2       	0           	                	;
 J-145           	941         	0           	                	;
 J-146           	862.4       	0.53472     	3               	;
 J-147           	836.2       	0           	                	;
 J-148           	836.2       	1.14815     	3               	;
 J-149           	842.4       	0.56481     	3               	;
 J-15            	912.2       	0.375       	3               	;
 J-150           	845.2       	0.57639     	3               	;
 J-151           	835.5       	0           	                	;
 J-152           	790.9       	0.8125      	3               	;
 J-153           	872         	2.11574     	3               	;
 J-154           	854.8       	0.5625      	3               	;
 J-155           	858.4       	0.1713      	3               	;
 J-156           	851.7       	0.53935     	3               	;
 J-157           	849.5       	1.125       	3               	;
 J-158           	803.7       	0           	                	;
 J-159           	869.5       	0           	                	;
 J-16            	914.3       	0.64583     	3               	;
 J-160           	834.8       	0           	                	;
 J-161           	834.8       	0           	                	;
 J-162           	841.4       	0.03241     	3               	;
 J-163           	809.1       	0           	                	;
 J-164           	850.4       	0.28472     	2               	;
 J-165           	844.9       	0           	                	;
 J-166           	824         	0.39352     	3               	;
 J-167           	821.1       	0           	                	;
 J-168           	790         	0.04398     	2               	;
 J-169           	797.8       	0           	                	;
 J-17            	887         	2.53704     	2               	;
 J-170           	829.9       	0.33565     	3               	;
 J-171           	830.9       	0.30093     	2               	;
 J-172           	863.2       	0           	                	;
 J-173           	860.6       	0.75231     	3               	;
 J-174           	808.2       	0.28241     	3               	;
 J-175           	806.1       	0.96528     	3               	;
 J-176           	829.9       	0.21296     	3               	;
 J-177           	828.2       	1.1875      	3               	;
 J-178           	878.1       	0           	                	;
 J-179           	905.6       	2.38889     	3               	;
 J-18            	888.3       	1.45139     	2               	;
 J-180           	835.7       	0           	                	;
 J-181           	855.1       	0.58796     	3               	;
 J-182           	851.7       	0           	                	;
 J-183           	812.3       	0.1875      	3               	;
 J-184           	816.2       	0.2338      	3               	;
 J-185           	848.5       	2.42361     	3               	;
 J-186           	805.8       	0           	                	;
 J-187           	795.9       	0           	                	;
 J-188           	840         	0           	                	;
 J-189           	838.9       	0           	                	;
 J-19            	860.3       	0.34491     	1               	;
 J-190           	886.7       	0.32407     	3               	;
 J-191           	879.5       	1.38426     	3               	;
 J-192           	902.6       	1.22685     	1               	;
 J-193           	898.1       	0           	                	;
 J-194           	887.5       	1.46759     	3               	;
 J-195           	809.9       	2.08333     	2               	;
 J-196           	855.6       	1.0625      	3               	;
 J-197           	855.6       	3.16204     	3               	;
 J-198           	824.6       	2.14352     	3               	;
 J-199           	891.8       	1.46296     	3               	;
 J-2             	889.8       	9.7963      	2               	;
 J-20            	853.1       	0.39583     	3               	;
 J-200           	834.5       	0           	                	;
 J-201           	845.2       	0           	                	;
 J-202           	809         	0           	                	;
 J-203           	800         	0.59491     	3               	;
 J-204           	791.3       	0           	                	;
 J-205           	891.4       	0.29398     	3               	;
 J-206           	894.9       	0.22222     	3               	;
 J-207           	850.1       	0.37732     	1               	;
 J-208           	844.7       	1.20602     	3               	;
 J-209           	889.4       	0.94213     	3               	;
 J-21            	838         	0           	                	;
 J-210           	867.6       	1.75        	3               	;
 J-211           	819.8       	0.7338      	3               	;
 J-212           	812.1       	1.36111     	3               	;
 J-213           	817.7       	5.75463     	2               	;
 J-214           	812.1       	0           	                	;
 J-215           	855.2       	0.0625      	3               	;
 J-216           	803.6       	0.22917     	3               	;
 J-217           	849.7       	0.86574     	3               	;
 J-218           	858.5       	0           	                	;
 J-219           	833.1       	0.76852     	3               	;
 J-22            	864.8       	1.20602     	3               	;
 J-220           	864.4       	2.01852     	3               	;
 J-221           	891.5       	0           	                	;
 J-222           	887.1       	0.2         	3               	;
 J-223           	854.2       	0.54167     	3               	;
 J-224           	815.5       	0.51157     	3               	;
 J-225           	816.9       	0.10417     	3               	;
 J-226           	833.2       	0           	                	;
 J-227           	832         	0           	                	;
 J-228           	851.5       	0           	                	;
 J-229           	856.7       	0.58333     	3               	;
 J-23            	822.7       	1.50231     	3               	;
 J-230           	859.3       	0           	                	;
 J-231           	812.3       	0.45833     	3               	;
 J-232           	896.7       	2.22454     	3               	;
 J-233           	834.7       	0           	                	;
 J-234           	852.5       	1.62269     	3               	;
 J-235           	862         	0.3125      	3               	;
 J-236           	825.2       	0           	                	;
 J-237           	891         	0.17361     	3               	;
 J-238           	892.3       	0.19213     	3               	;
 J-239           	788.1       	0.91667     	3               	;
 J-24            	815.4       	0.35185     	2               	;
 J-240           	790         	1.2963      	3               	;
 J-241           	899.9       	0.80324     	3               	;
 J-242           	887         	0           	                	;
 J-243           	808.3       	0.17593     	3               	;
 J-244           	791         	0.28935     	3               	;
 J-245           	912.7       	0           	                	;
 J-246           	875.6       	0.80093     	3               	;
 J-247           	808.3       	0           	                	;
 J-248           	869.8       	0.90972     	3               	;
 J-249           	860.6       	2.00926     	3               	;
 J-25            	871.3       	2.41667     	3               	;
 J-250           	798.6       	0           	                	;
 J-251           	862.1       	0           	                	;
 J-252           	851.5       	5.3         	1               	;
 J-253           	859.4       	2.16898     	3               	;
 J-254           	915         	0.30093     	2               	;
 J-255           	858.2       	0.125       	3               	;
 J-256           	856.3       	0           	                	;
 J-257           	845.2       	1.81713     	1               	;
 J-258           	831.3       	0.78935     	1               	;
 J-259           	817         	10.8356     	1               	;
 J-26            	857.4       	1.71759     	3               	;
 J-260           	849.2       	0           	                	;
 J-261           	841.7       	0           	                	;
 J-262           	834.8       	1.18981     	3               	;
 J-263           	840.7       	0.20139     	3               	;
 J-264           	836.7       	0           	                	;
 J-265           	821.2       	0.46296     	3               	;
 J-266           	813.4       	0           	                	;
 J-267           	803.7       	1.2037      	3               	;
 J-268           	881.2       	0.50694     	3               	;
 J-269           	777.2       	0           	                	;
 J-27            	847.8       	0.70139     	1               	;
 J-270           	915         	1.41435     	3               	;
 J-271           	913.8       	1.72454     	3               	;
 J-272           	878.6       	0           	                	;
 J-273           	865.8       	0.37963     	3               	;
 J-274           	843         	2.22917     	1               	;
 J-275           	850         	0.75        	3               	;
 J-276           	845.7       	0           	                	;
 J-277           	824.4       	0.41667     	3               	;
 J-278           	819.9       	0           	                	;
 J-279           	846.2       	0.60417     	3               	;
 J-28            	838.4       	1.20602     	3               	;
 J-280           	813.6       	0.93056     	3               	;
 J-281           	837.6       	1.15278     	1               	;
 J-282           	805.8       	0.25694     	2               	;
 J-283           	842.3       	2.31944     	2               	;
 J-284           	838.9       	3.41204     	1               	;
 J-285           	842         	0.22917     	3               	;
 J-286           	857.9       	2.17593     	3               	;
 J-287           	870.6       	0.85417     	3               	;
 J-288           	813.4       	0           	                	;
 J-289           	849.6       	1.84722     	3               	;
 J-29            	872.4       	0           	                	;
 J-290           	859.7       	0           	                	;
 J-291           	852.4       	0           	                	;
 J-292           	841.7       	0.05556     	3               	;
 J-293           	848.4       	0.4375      	3               	;
 J-294           	860.7       	1.91667     	3               	;
 J-295           	869.4       	0           	                	;
 J-296           	909.8       	0.2662      	3               	;
 J-297           	838.2       	0.34259     	1               	;
 J-298           	839.5       	0.12963     	3               	;
 J-299           	834         	0.44907     	3               	;
 J-3             	867         	1.31481     	3               	;
 J-30            	880.7       	0           	                	;
 J-300           	858.7       	1.28472     	3               	;
 J-301           	856         	2.20139     	3               	;
 J-302           	853.8       	0.21991     	2               	;
 J-303           	877         	0.18287     	3               	;
 J-304           	886.5       	1.74537     	3               	;
 J-305           	863.7       	0           	                	;
 J-306           	792.6       	0.7037      	3               	;
 J-307           	908.8       	0.7037      	3               	;
 J-308           	892.6       	0.26852     	3               	;
 J-309           	818         	1.86574     	3               	;
 J-31            	793.2       	1           	3               	;
 J-310           	853.1       	0.34954     	1               	;
 J-311           	860.1       	0.48843     	3               	;
 J-312           	840         	1.9838      	3               	;
 J-313           	836.9       	0.05787     	3               	;
 J-314           	830.9       	0.34259     	1               	;
 J-315           	830         	0           	                	;
 J-316           	840.2       	0           	                	;
 J-317           	869.8       	1.90046     	1               	;
 J-318           	820.4       	0           	                	;
 J-319           	820.3       	0           	                	;
 J-32            	799.5       	0.25926     	3               	;
 J-320           	892.8       	0           	                	;
 J-321           	854.1       	0.19213     	2               	;
 J-322           	891.3       	0           	                	;
 J-323           	889.8       	0.19676     	1               	;
 J-324           	844.5       	1.17824     	3               	;
 J-325           	868.2       	0.96991     	3               	;
 J-326           	892         	0           	                	;
 J-327           	828         	1.03935     	3               	;
 J-328           	819.6       	0.12269     	2               	;
 J-329           	803.9       	0           	                	;
 J-33            	878.7       	0.01852     	3               	;
 J-330           	877.6       	3.47685     	3               	;
 J-331           	856         	0           	                	;
 J-332           	834.7       	23.9282     	2               	;
 J-333           	853.9       	5.20139     	2               	;
 J-334           	894.2       	0.56944     	3               	;
 J-335           	815.8       	0.84028     	3               	;
 J-336           	818.1       	1.22222     	3               	;
 J-337           	886.7       	3.76852     	3               	;
 J-338           	917.5       	0           	                	;
 J-339           	876.7       	0.52083     	3               	;
 J-34            	892.4       	0           	                	;
 J-340           	859.5       	2.3125      	3               	;
 J-341           	878.3       	0.74537     	3               	;
 J-342           	899.3       	0.94907     	2               	;
 J-343           	827.5       	0.8287      	3               	;
 J-344           	842.8       	0.84722     	3               	;
 J-345           	846.7       	0.37037     	3               	;
 J-346           	848.1       	0.70833     	3               	;
 J-347           	834.8       	0.55556     	3               	;
 J-348           	836.1       	0           	                	;
 J-349           	854.5       	0           	                	;
 J-35            	900.2       	1.32407     	2               	;
 J-350           	853.3       	0           	                	;
 J-351           	879.9       	0           	                	;
 J-352           	854.5       	0.23843     	3               	;
 J-353           	862.4       	3.26852     	1               	;
 J-354           	839.5       	0           	                	;
 J-355           	831.3       	2.39352     	3               	;
 J-356           	838.7       	1.06944     	3               	;
 J-357           	845.1       	2.75926     	3               	;
 J-358           	797.9       	0           	                	;
 J-359           	849.6       	0           	                	;
 J-36            	940.3       	0.0463      	2               	;
 J-360           	843.8       	0.46296     	3               	;
 J-361           	838.5       	1.40278     	1               	;
 J-362           	838.9       	0.57176     	3               	;
 J-363           	861.1       	0           	                	;
 J-364           	872         	0           	                	;
 J-365           	865.9       	0           	                	;
 J-366           	868.6       	1.47454     	2               	;
 J-367           	868         	1.51852     	3               	;
 J-368           	847.5       	2.67361     	3               	;
 J-369           	902.4       	0           	                	;
 J-37            	872.7       	0.16667     	1               	;
 J-370           	872.5       	0.11806     	3               	;
 J-371           	886.7       	0.12269     	3               	;
 J-372           	894.3       	0           	                	;
 J-373           	884         	0           	                	;
 J-374           	862         	3.43519     	3               	;
 J-375           	848.7       	0           	                	;
 J-376           	828.2       	0.60648     	3               	;
 J-377           	869.5       	0           	                	;
 J-378           	881.6       	1.125       	2               	;
 J-379           	880.2       	1.12731     	2               	;
 J-38            	870.5       	0           	                	;
 J-380           	903.3       	7.09491     	1               	;
 J-381           	902.6       	0           	                	;
 J-382           	827.1       	0.56713     	3               	;
 J-383           	886.2       	0.20602     	3               	;
 J-384           	899.9       	1.12963     	3               	;
 J-385           	846.6       	0.90972     	3               	;
 J-386           	795.6       	1.7963      	3               	;
 J-387           	863.6       	0.82639     	3               	;
 J-388           	859.1       	0.37963     	3               	;
 J-389           	863.7       	0           	                	;
 J-39            	894.9       	2.41204     	3               	;
 J-390           	869.9       	1.40509     	2               	;
 J-391           	865.9       	3.53473     	3               	;
 J-392           	880.7       	2           	3               	;
 J-393           	817         	1.60185     	1               	;
 J-394           	807         	1.05324     	3               	;
 J-395           	803.4       	1.14352     	3               	;
 J-396           	853         	0           	                	;
 J-397           	804.8       	0           	                	;
 J-398           	837.7       	1.15509     	2               	;
 J-399           	941.7       	0           	                	;
 J-4             	846.5       	0           	                	;
 J-40            	896.8       	0           	                	;
 J-400           	862.1       	1.57639     	3               	;
 J-401           	872         	0.58796     	3               	;
 J-402           	887.4       	0           	                	;
 J-403           	859.9       	0.13889     	3               	;
 J-404           	871.2       	0           	                	;
 J-405           	902.6       	0.36574     	1               	;
 J-406           	834.4       	1.40741     	3               	;
 J-407           	836.1       	0.35417     	3               	;
 J-408           	886.7       	2           	3               	;
 J-409           	868.3       	0.31713     	3               	;
 J-41            	872         	4.56713     	3               	;
 J-410           	864.3       	0.28009     	3               	;
 J-411           	873.6       	1.5         	3               	;
 J-412           	868.1       	0.28935     	3               	;
 J-413           	858.6       	0           	                	;
 J-414           	834.4       	2.57639     	1               	;
 J-415           	840.4       	0.56019     	3               	;
 J-416           	852.2       	0.6713      	3               	;
 J-417           	852.9       	0           	                	;
 J-418           	864.7       	0           	                	;
 J-419           	859.9       	3.20833     	1               	;
 J-42            	879.0002    	1.59954     	3               	;
 J-420           	880         	0           	                	;
 J-421           	862.4       	1.31019     	1               	;
 J-422           	926.2       	0           	                	;
 J-423           	869.6       	0.61343     	3               	;
 J-424           	898         	3.09954     	1               	;
 J-425           	876.2       	0.57176     	3               	;
 J-426           	923.3       	0           	                	;
 J-427           	940.8       	0.08565     	2               	;
 J-428           	808.8       	0           	                	;
 J-429           	871.2       	0.37037     	3               	;
 J-43            	902.3       	0.46296     	3               	;
 J-430           	844.5       	1.0463      	1               	;
 J-431           	866.1       	0.14352     	3               	;
 J-432           	872.6       	0.56944     	3               	;
 J-433           	816.2       	0.06019     	3               	;
 J-434           	836.8       	0.65972     	3               	;
 J-435           	864.7       	0.9375      	3               	;
 J-436           	860.7       	0           	                	;
 J-437           	844.5       	0.02083     	3               	;
 J-438           	855.7       	0           	                	;
 J-439           	826.1       	0.51389     	1               	;
 J-44            	828.7       	1.4838      	1               	;
 J-440           	822.2       	0           	                	;
 J-441           	789.8       	2.19213     	2               	;
 J-442           	785.4       	0.29861     	3               	;
 J-443           	936.1       	0.82639     	3               	;
 J-444           	910.7       	2.4537      	2               	;
 J-445           	809.5       	0.57407     	3               	;
 J-446           	834.9       	0.46991     	3               	;
 J-447           	818.7       	0.15972     	3               	;
 J-448           	834         	0           	                	;
 J-449           	838.7       	1.54861     	3               	;
 J-45            	805.3       	0.66898     	3               	;
 J-450           	790.7       	0           	                	;
 J-451           	806.8       	0           	                	;
 J-452           	811.3       	0           	                	;
 J-453           	869.5       	12.2616     	3               	;
 J-454           	799.3       	0.29167     	2               	;
 J-455           	859.6       	0           	                	;
 J-456           	894.2       	2.2662      	1               	;
 J-457           	891.5       	0           	                	;
 J-458           	911.4       	0           	                	;
 J-459           	920.6       	0.75231     	3               	;
 J-46            	814.1       	1.53241     	2               	;
 J-460           	877.3       	0           	                	;
 J-461           	927.4       	0.03241     	2               	;
 J-462           	875.5       	0           	                	;
 J-463           	860.8       	0           	                	;
 J-464           	879         	1.72222     	3               	;
 J-465           	861.5       	22.9        	1               	;
 J-466           	857.9       	0.19907     	3               	;
 J-467           	849.7       	0.56944     	3               	;
 J-468           	836.8       	0           	                	;
 J-469           	852.1       	1.77546     	3               	;
 J-47            	810.3       	3.17824     	3               	;
 J-470           	843.4       	0.26157     	3               	;
 J-471           	847.5       	0.57407     	3               	;
 J-472           	921         	6.42824     	3               	;
 J-473           	872.5       	0           	                	;
 J-474           	851.4       	2.99074     	1               	;
 J-475           	889.7       	0.65046     	3               	;
 J-476           	879.5       	0.4213      	1               	;
 J-477           	935.9       	0.30093     	3               	;
 J-478           	916.5       	1.11806     	3               	;
 J-479           	848         	0           	                	;
 J-48            	872.1       	0           	                	;
 J-480           	834.1       	0.35185     	3               	;
 J-481           	834.5       	0.71065     	3               	;
 J-482           	794         	0.58796     	1               	;
 J-483           	861.3       	200         	4               	;
 J-484           	863.3       	0           	                	;
 J-485           	936.2       	0           	                	;
 J-486           	791.3       	0           	                	;
 J-487           	834.6       	1.09491     	3               	;
 J-488           	831.7       	4.68982     	3               	;
 J-489           	808.6       	0           	                	;
 J-49            	886.9       	0.27778     	1               	;
 J-490           	951.9       	0.05324     	2               	;
 J-491           	893         	0.46065     	2               	;
 J-492           	811.3       	0           	                	;
 J-493           	837.3       	1.38426     	1               	;
 J-494           	868.7       	0           	                	;
 J-495           	852.8       	0.15509     	1               	;
 J-496           	860.4       	0           	                	;
 J-497           	860.3       	4.8         	1               	;
 J-498           	871.3       	3.35648     	3               	;
 J-499           	868.3       	0.34722     	3               	;
 J-5             	849         	0           	                	;
 J-50            	864.3       	0.11343     	3               	;
 J-500           	816.5       	1.94444     	3               	;
 J-501           	838.8       	0           	                	;
 J-502           	881.4       	1.03241     	1               	;
 J-503           	855.4       	2.80093     	1               	;
 J-504           	878.1       	0           	                	;
 J-505           	869.6       	0           	                	;
 J-506           	863.8       	22.1        	2               	;
 J-507           	877.6       	0.32176     	3               	;
 J-508           	873.3       	0.0463      	3               	;
 J-509           	855.5       	1.4375      	3               	;
 J-51            	883.7       	0.15972     	2               	;
 J-510           	876.4       	0           	                	;
 J-511           	834         	0           	                	;
 J-512           	850.2       	0.62963     	3               	;
 J-513           	854.8       	0           	                	;
 J-514           	856.5       	0           	                	;
 J-515           	841         	0           	                	;
 J-516           	888.7       	0           	                	;
 J-517           	856         	0           	                	;
 J-518           	870.5       	0.82639     	1               	;
 J-519           	852.8       	0           	                	;
 J-52            	842         	0.05787     	1               	;
 J-520           	822.6       	0.74769     	3               	;
 J-521           	865.7       	0           	                	;
 J-522           	868.7       	0           	                	;
 J-523           	850.4       	1.02315     	2               	;
 J-524           	876.5       	1.64815     	1               	;
 J-525           	875.9       	0.62963     	1               	;
 J-526           	830.4       	1.75463     	1               	;
 J-527           	842.4       	2.28935     	1               	;
 J-528           	842.6       	0.91898     	2               	;
 J-529           	832.5       	0.88889     	2               	;
 J-53            	843.4       	0           	                	;
 J-530           	883.3       	1.21065     	3               	;
 J-531           	843.1       	0.84954     	3               	;
 J-532           	814.9       	0.41667     	3               	;
 J-533           	813.8       	8.86806     	3               	;
 J-534           	868         	1.88657     	3               	;
 J-535           	849.7       	0.45139     	2               	;
 J-536           	843.4       	0.45833     	3               	;
 J-537           	868.2       	1.82407     	3               	;
 J-538           	899.7       	2.7037      	3               	;
 J-539           	902.2       	0           	                	;
 J-54            	845.5       	3           	1               	;
 J-540           	876.9       	0           	                	;
 J-541           	880.5       	0.49768     	2               	;
 J-542           	871.3       	0           	                	;
 J-543           	878.4       	0.73148     	2               	;
 J-544           	867.8       	0.54167     	2               	;
 J-545           	795.7       	0           	                	;
 J-546           	870.6       	0           	                	;
 J-547           	867.3       	1.68287     	1               	;
 J-548           	832.9       	0.28704     	3               	;
 J-549           	825         	0           	                	;
 J-55            	861.7       	0           	                	;
 J-550           	832.3       	0.67361     	3               	;
 J-551           	860.5       	0.39815     	3               	;
 J-552           	875.9       	0.29398     	1               	;
 J-553           	907.5       	0           	                	;
 J-554           	894.7       	0.77546     	1               	;
 J-555           	878.7       	0.96        	3               	;
 J-556           	882.7       	1.25231     	3               	;
 J-557           	848.2       	3.57639     	3               	;
 J-558           	830         	3.30787     	1               	;
 J-559           	853.4       	9.80787     	3               	;
 J-56            	847.5       	0.41667     	3               	;
 J-560           	877.9       	0           	                	;
 J-561           	794.3       	0.16667     	3               	;
 J-562           	789.1       	0.41435     	3               	;
 J-563           	857.7       	0.33333     	3               	;
 J-564           	826.3       	2.19907     	3               	;
 J-565           	891.5       	1.22454     	3               	;
 J-566           	862.5       	1.11806     	3               	;
 J-567           	876.3       	1.24306     	3               	;
 J-568           	913.6       	0.16435     	3               	;
 J-569           	938.2       	0           	                	;
 J-57            	841.5       	2.09491     	3               	;
 J-570           	856.6       	1.07639     	3               	;
 J-571           	869         	0.06019     	3               	;
 J-572           	889.6       	0           	                	;
 J-573           	809         	0.43518     	3               	;
 J-574           	829.1       	0.80556     	3               	;
 J-575           	846.2       	0.1713      	3               	;
 J-576           	908.8       	1.76389     	2               	;
 J-577           	843.1       	3.96528     	3               	;
 J-578           	880.7       	1.44444     	3               	;
 J-579           	853.8       	0.84028     	3               	;
 J-58            	808.2       	1.56713     	3               	;
 J-580           	810.4       	0.10185     	3               	;
 J-581           	872.8       	0.51        	1               	;
 J-582           	876.1       	0.40972     	3               	;
 J-583           	920.6       	0           	                	;
 J-584           	921.5       	0.59028     	2               	;
 J-585           	896.8       	0           	                	;
 J-586           	814.6       	0           	                	;
 J-587           	823.4       	0           	                	;
 J-588           	827.9       	0           	                	;
 J-589           	856.6       	0           	                	;
 J-59            	849.1       	1           	3               	;
 J-590           	807.6       	0           	                	;
 J-591           	886.4       	1.31481     	3               	;
 J-592           	845.6       	1.94444     	3               	;
 J-593           	820.5       	0           	                	;
 J-594           	862.2       	0           	                	;
 J-595           	858.9       	1.36343     	3               	;
 J-596           	844.8       	0.23843     	2               	;
 J-597           	893.6       	0.69907     	3               	;
 J-598           	896.9       	0.30093     	2               	;
 J-599           	858         	0.26157     	3               	;
 J-6             	912.1       	1.68981     	2               	;
 J-60            	861.5       	0           	                	;
 J-600           	836.1       	1.4375      	2               	;
 J-601           	859.5       	1.09954     	3               	;
 J-602           	811.7       	2.86343     	3               	;
 J-603           	899.9       	2.66667     	3               	;
 J-604           	913.5       	1.23843     	3               	;
 J-605           	850.8       	3           	3               	;
 J-606           	856.6       	0           	                	;
 J-607           	850         	0.88194     	3               	;
 J-608           	916.5       	0           	                	;
 J-609           	871.1       	0           	                	;
 J-61            	868.1       	0.37963     	3               	;
 J-610           	890.4       	0           	                	;
 J-611           	864.2       	1.04167     	3               	;
 J-612           	813.4       	0.96991     	3               	;
 J-613           	924.6       	1.55093     	2               	;
 J-614           	904.2       	0           	                	;
 J-615           	892.4       	1.28472     	3               	;
 J-616           	836.1       	0.2338      	3               	;
 J-617           	808.3       	0           	                	;
 J-618           	835.5       	0.63657     	1               	;
 J-619           	871.4       	0           	                	;
 J-619a          	875         	0           	                	;
 J-62            	869         	0           	                	;
 J-620           	850.4       	0.58565     	3               	;
 J-621           	896.9       	0           	                	;
 J-622           	814.8       	0           	                	;
 J-623           	870         	3.23843     	2               	;
 J-624           	903.6       	0           	                	;
 J-625           	834.9       	0.22685     	1               	;
 J-626           	871.5       	0.71528     	2               	;
 J-627           	882.7       	1           	3               	;
 J-628           	884         	0           	                	;
 J-629           	811.4       	0.3588      	3               	;
 J-63            	861.2       	0.78935     	3               	;
 J-630           	809.4       	1.2338      	3               	;
 J-631           	867.2       	0.25694     	3               	;
 J-632           	878.4       	2.72917     	3               	;
 J-633           	813.2       	2.13657     	3               	;
 J-634           	865.2       	0.14352     	2               	;
 J-635           	846.4       	4           	1               	;
 J-636           	873.4       	0           	                	;
 J-637           	872.2       	0           	                	;
 J-638           	818.3       	0           	                	;
 J-639           	803.6       	0.94676     	3               	;
 J-64            	870.4       	3.65509     	3               	;
 J-640           	875.1       	0.39352     	3               	;
 J-641           	923.3       	0           	                	;
 J-642           	836.1       	0           	                	;
 J-643           	921.4       	0           	                	;
 J-644           	911.5       	0.38426     	3               	;
 J-645           	911.5       	3.80324     	3               	;
 J-646           	913         	2.4838      	3               	;
 J-647           	872.3       	4.30324     	3               	;
 J-648           	888.3       	0.54398     	3               	;
 J-649           	885.8       	0           	                	;
 J-65            	833.7       	0.63657     	3               	;
 J-650           	888.6       	0.7037      	3               	;
 J-651           	838.6       	0           	                	;
 J-652           	874.5       	4.22917     	2               	;
 J-653           	841         	0.07176     	1               	;
 J-654           	840.3       	0.17361     	1               	;
 J-655           	854.4       	0           	                	;
 J-656           	830.6       	1.19907     	3               	;
 J-657           	830.1       	0.92593     	3               	;
 J-658           	878.1       	0           	                	;
 J-659           	853.7       	3.15741     	2               	;
 J-66            	834.5       	0           	                	;
 J-660           	875.4       	0.15972     	3               	;
 J-661           	870.8       	1.08333     	3               	;
 J-662           	827.2       	0.51389     	3               	;
 J-663           	883.8       	1.09722     	2               	;
 J-664           	899.4       	0           	                	;
 J-665           	926.6       	0           	                	;
 J-666           	833.9       	2.00926     	3               	;
 J-667           	836.1       	9.50231     	3               	;
 J-668           	869.8       	0.28704     	2               	;
 J-669           	868.4       	0.03472     	1               	;
 J-67            	837.1       	6           	3               	;
 J-670           	846.9       	0           	                	;
 J-671           	837.3       	0.1713      	3               	;
 J-672           	871.1       	0.33102     	3               	;
 J-673           	858.4       	0.36574     	3               	;
 J-674           	874.8       	0.03472     	2               	;
 J-675           	812.9       	0           	                	;
 J-676           	794.3       	0           	                	;
 J-677           	839.4       	2.86574     	3               	;
 J-678           	870.4       	2.25926     	1               	;
 J-679           	905.3       	0           	                	;
 J-68            	844.9       	0           	                	;
 J-680           	805.2       	5.27083     	3               	;
 J-681           	800.8       	0           	                	;
 J-682           	865.2       	15.2963     	3               	;
 J-683           	869.9       	0           	                	;
 J-684           	819.2       	0.76389     	3               	;
 J-685           	869.8       	1.87037     	2               	;
 J-686           	921.8       	0.89815     	2               	;
 J-687           	927.5       	0           	                	;
 J-688           	861.6       	0.18519     	3               	;
 J-689           	846.8       	1.2662      	1               	;
 J-69            	822.6       	0.7662      	3               	;
 J-690           	862         	0           	                	;
 J-691           	837.4       	0           	                	;
 J-692           	936.1       	0.17361     	2               	;
 J-693           	806.3       	0.00463     	3               	;
 J-694           	875.4       	0           	                	;
 J-695           	907         	0           	                	;
 J-696           	792.6       	0.25926     	3               	;
 J-697           	891.8       	1.34028     	3               	;
 J-698           	847.3       	1.79861     	2               	;
 J-699           	892.7       	0           	                	;
 J-7             	837.7       	1.68519     	3               	;
 J-70            	872.8       	0           	                	;
 J-700           	898.7       	0           	                	;
 J-701           	810.2       	1.02778     	3               	;
 J-702           	818.4       	1.28241     	3               	;
 J-703           	916.8       	0.57639     	3               	;
 J-704           	822.8       	0           	                	;
 J-705           	838         	0           	                	;
 J-706           	821         	0.19213     	3               	;
 J-707           	834         	0.19444     	3               	;
 J-708           	796         	0.6875      	2               	;
 J-709           	796         	1           	3               	;
 J-71            	860.8       	1.40509     	3               	;
 J-710           	834.1       	0           	                	;
 J-711           	886.9       	0           	                	;
 J-712           	849.5       	0.01852     	3               	;
 J-713           	901.8       	0           	                	;
 J-714           	884.1       	0.40278     	3               	;
 J-715           	896.9       	2           	2               	;
 J-716           	842.8       	0           	                	;
 J-717           	869.3       	0           	                	;
 J-718           	886.4       	3.3912      	3               	;
 J-719           	873.3       	0.48611     	2               	;
 J-72            	861.3       	0.21528     	3               	;
 J-720           	891.8       	0.74769     	3               	;
 J-721           	897.6       	0           	                	;
 J-722           	897.5       	0           	                	;
 J-723           	897.5       	0           	                	;
 J-724           	801.7       	0           	                	;
 J-725           	892.3       	0           	                	;
 J-726           	897.6       	3.73611     	1               	;
 J-727           	887.4       	0           	                	;
 J-728           	810.8       	1.11343     	3               	;
 J-729           	859.2       	0           	                	;
 J-73            	880.5       	0           	                	;
 J-730           	843.9       	0           	                	;
 J-731           	789         	0           	                	;
 J-732           	800         	0           	                	;
 J-733           	790.7       	0           	                	;
 J-734           	806.3       	0           	                	;
 J-735           	789         	0           	                	;
 J-736           	813.1       	0           	                	;
 J-737           	891         	0           	                	;
 J-738           	845.8       	0           	                	;
 J-739           	897.6       	0.18287     	1               	;
 J-74            	880.8       	0           	                	;
 J-740           	883.2       	2           	3               	;
 J-741           	896.4       	2           	3               	;
 J-742           	882.1       	2           	3               	;
 J-743           	867.9       	0           	                	;
 J-744           	934.6       	4.92593     	3               	;
 J-745           	865.7       	33.7685     	2               	;
 J-746           	869.8       	0           	                	;
 J-747           	813.5       	0.25232     	2               	;
 J-748           	851.5       	11.1042     	2               	;
 J-749           	869.8       	1.42593     	2               	;
 J-75            	867.2       	3           	3               	;
 J-750           	873.6       	1.75694     	2               	;
 J-751           	868.5       	0.13194     	2               	;
 J-752           	881.6       	0           	                	;
 J-753           	907         	0.4213      	2               	;
 J-754           	892.4       	0           	                	;
 J-755           	893.1       	0           	                	;
 J-756           	892.4       	0           	                	;
 J-757           	892.4       	0           	                	;
 J-758           	893.1       	0           	                	;
 J-759           	892.4       	0           	                	;
 J-76            	850.7       	0           	                	;
 J-760           	876.4       	0           	                	;
 J-761           	875         	0           	                	;
 J-762           	902         	0           	                	;
 J-77            	843.4       	0           	                	;
 J-78            	842.4       	1.17361     	3               	;
 J-79            	855.2       	0           	                	;
 J-8             	837         	0.12037     	3               	;
 J-80            	807.9       	1.88657     	3               	;
 J-81            	892.6       	0.90972     	1               	;
 J-82            	892         	0.54167     	1               	;
 J-83            	847.8       	1.30787     	3               	;
 J-84            	890.6       	1.45        	3               	;
 J-85            	873.3       	1.14815     	3               	;
 J-86            	871.5       	0.10417     	3               	;
 J-87            	822.2       	6.6         	3               	;
 J-88            	837.5       	0.60185     	1               	;
 J-89            	876.6       	0           	                	;
 J-9             	804.9       	0           	                	;
 J-90            	892.1       	1.60648     	3               	;
 J-91            	883.3       	0.30324     	2               	;
 J-92            	821.8       	1.03935     	2               	;
 J-93            	808.2       	0.28009     	3               	;
 J-94            	849.8       	0           	                	;
 J-95            	804.1       	0           	                	;
 J-96            	901.4       	0.06944     	3               	;
 J-97            	903.3       	0           	                	;
 J-98            	832.2       	0           	                	;
 J-99            	816.6       	0           	                	;
 O-AV-1          	892.4       	0           	                	;
 O-AV-10         	887.7       	0           	                	;
 O-AV-100        	868.2       	0           	                	;
 O-AV-101        	887.8       	0           	                	;
 O-AV-102        	837.8       	0           	                	;
 O-AV-103        	888.7       	0           	                	;
 O-AV-104        	887.1       	0           	                	;
 O-AV-105        	847.9       	0           	                	;
 O-AV-106        	851.8       	0           	                	;
 O-AV-107        	845.9       	0           	                	;
 O-AV-108        	843.8       	0           	                	;
 O-AV-109        	846.3       	0           	                	;
 O-AV-11         	888.5       	0           	                	;
 O-AV-110        	871.3       	0           	                	;
 O-AV-111        	871.3       	0           	                	;
 O-AV-112        	869.5       	0           	                	;
 O-AV-113        	869.7       	0           	                	;
 O-AV-114        	839.3       	0           	                	;
 O-AV-115        	869.8       	0           	                	;
 O-AV-116        	870.1       	0           	                	;
 O-AV-117        	855.1       	0           	                	;
 O-AV-118        	855.4       	0           	                	;
 O-AV-119        	871.3       	0           	                	;
 O-AV-12         	885.8       	0           	                	;
 O-AV-120        	872.2       	0           	                	;
 O-AV-121        	872.9       	0           	                	;
 O-AV-122        	872.7       	0           	                	;
 O-AV-123        	872.5       	0           	                	;
 O-AV-124        	849.1       	0           	                	;
 O-AV-125        	861.3       	0           	                	;
 O-AV-126        	858.8       	0           	                	;
 O-AV-127        	835.2       	0           	                	;
 O-AV-128        	841.3       	0           	                	;
 O-AV-129        	849.5       	0           	                	;
 O-AV-13         	871.1       	0           	                	;
 O-AV-130        	843.4       	0           	                	;
 O-AV-131        	860.1       	0           	                	;
 O-AV-132        	859.3       	0           	                	;
 O-AV-133        	858.7       	0           	                	;
 O-AV-134        	855         	0           	                	;
 O-AV-135        	863.1       	0           	                	;
 O-AV-136        	852.9       	0           	                	;
 O-AV-137        	829.9       	0           	                	;
 O-AV-138        	834.1       	0           	                	;
 O-AV-139        	866.7       	0           	                	;
 O-AV-14         	871.3       	0           	                	;
 O-AV-140        	929.1       	0           	                	;
 O-AV-141        	924.9       	0           	                	;
 O-AV-142        	918.3       	0           	                	;
 O-AV-143        	900         	0           	                	;
 O-AV-144        	900.2       	0           	                	;
 O-AV-145        	901.8       	0           	                	;
 O-AV-146        	863.1       	0           	                	;
 O-AV-147        	920.7       	0           	                	;
 O-AV-148        	833.3       	0           	                	;
 O-AV-149        	834.8       	0           	                	;
 O-AV-15         	843.9       	0           	                	;
 O-AV-150        	812.5       	0           	                	;
 O-AV-151        	821.4       	0           	                	;
 O-AV-152        	821.6       	0           	                	;
 O-AV-153        	838.1       	0           	                	;
 O-AV-154        	841.5       	0           	                	;
 O-AV-155        	850.8       	0           	                	;
 O-AV-156        	852.3       	0           	                	;
 O-AV-157        	865.6       	0           	                	;
 O-AV-158        	837.1       	0           	                	;
 O-AV-159        	836.2       	0           	                	;
 O-AV-16         	861.6       	0           	                	;
 O-AV-160        	836.9       	0           	                	;
 O-AV-161        	833.5       	0           	                	;
 O-AV-162        	827.3       	0           	                	;
 O-AV-163        	834.8       	0           	                	;
 O-AV-164        	842.4       	0           	                	;
 O-AV-165        	825.3       	0           	                	;
 O-AV-166        	825.3       	0           	                	;
 O-AV-167        	816.3       	0           	                	;
 O-AV-168        	873.5       	0           	                	;
 O-AV-169        	816.6       	0           	                	;
 O-AV-17         	860.5       	0           	                	;
 O-AV-170        	817.5       	0           	                	;
 O-AV-171        	842.3       	0           	                	;
 O-AV-172        	842.4       	0           	                	;
 O-AV-173        	807.9       	0           	                	;
 O-AV-174        	832.6       	0           	                	;
 O-AV-175        	834.2       	0           	                	;
 O-AV-176        	836.8       	0           	                	;
 O-AV-177        	838.3       	0           	                	;
 O-AV-178        	856.6       	0           	                	;
 O-AV-179        	879.7       	0           	                	;
 O-AV-18         	859.2       	0           	                	;
 O-AV-180        	856.6       	0           	                	;
 O-AV-181        	856.6       	0           	                	;
 O-AV-182        	854.4       	0           	                	;
 O-AV-183        	867.2       	0           	                	;
 O-AV-184        	869.8       	0           	                	;
 O-AV-185        	833.1       	0           	                	;
 O-AV-186        	834         	0           	                	;
 O-AV-187        	835.2       	0           	                	;
 O-AV-188        	813.6       	0           	                	;
 O-AV-189        	815.6       	0           	                	;
 O-AV-19         	852.5       	0           	                	;
 O-AV-190        	833.5       	0           	                	;
 O-AV-191        	807.2       	0           	                	;
 O-AV-192        	806.2       	0           	                	;
 O-AV-193        	804.2       	0           	                	;
 O-AV-194        	809.1       	0           	                	;
 O-AV-195        	835.4       	0           	                	;
 O-AV-196        	869         	0           	                	;
 O-AV-197        	868.1       	0           	                	;
 O-AV-198        	870         	0           	                	;
 O-AV-199        	816.4       	0           	                	;
 O-AV-2          	875         	0           	                	;
 O-AV-20         	849.7       	0           	                	;
 O-AV-200        	868.1       	0           	                	;
 O-AV-201        	849.5       	0           	                	;
 O-AV-202        	849.3       	0           	                	;
 O-AV-204        	843         	0           	                	;
 O-AV-205        	843.3       	0           	                	;
 O-AV-206        	851.5       	0           	                	;
 O-AV-207        	852.8       	0           	                	;
 O-AV-208        	857.8       	0           	                	;
 O-AV-209        	857.1       	0           	                	;
 O-AV-21         	844.9       	0           	                	;
 O-AV-210        	843.5       	0           	                	;
 O-AV-211        	856.9       	0           	                	;
 O-AV-212        	859.7       	0           	                	;
 O-AV-213        	850.5       	0           	                	;
 O-AV-214        	853.3       	0           	                	;
 O-AV-215        	848.8       	0           	                	;
 O-AV-216        	847.6       	0           	                	;
 O-AV-217        	805.2       	0           	                	;
 O-AV-218        	805         	0           	                	;
 O-AV-219        	794.7       	0           	                	;
 O-AV-22         	847.3       	0           	                	;
 O-AV-220        	797.6       	0           	                	;
 O-AV-221        	890.8       	0           	                	;
 O-AV-222        	848.1       	0           	                	;
 O-AV-223        	797.6       	0           	                	;
 O-AV-224        	796.2       	0           	                	;
 O-AV-225        	815.4       	0           	                	;
 O-AV-226        	840         	0           	                	;
 O-AV-227        	852.9       	0           	                	;
 O-AV-228        	842.6       	0           	                	;
 O-AV-229        	832.9       	0           	                	;
 O-AV-23         	838.8       	0           	                	;
 O-AV-230        	859.6       	0           	                	;
 O-AV-231        	860.3       	0           	                	;
 O-AV-232        	860.7       	0           	                	;
 O-AV-233        	806.8       	0           	                	;
 O-AV-234        	860.4       	0           	                	;
 O-AV-235        	860.3       	0           	                	;
 O-AV-236        	860.4       	0           	                	;
 O-AV-237        	860.4       	0           	                	;
 O-AV-238        	858.9       	0           	                	;
 O-AV-239        	859.4       	0           	                	;
 O-AV-24         	839.1       	0           	                	;
 O-AV-240        	859.4       	0           	                	;
 O-AV-241        	859.4       	0           	                	;
 O-AV-242        	855.6       	0           	                	;
 O-AV-243        	855.3       	0           	                	;
 O-AV-244        	829.8       	0           	                	;
 O-AV-245        	828.4       	0           	                	;
 O-AV-246        	844.9       	0           	                	;
 O-AV-247        	848.1       	0           	                	;
 O-AV-248        	835         	0           	                	;
 O-AV-249        	836.1       	0           	                	;
 O-AV-25         	837.6       	0           	                	;
 O-AV-250        	835         	0           	                	;
 O-AV-251        	837.9       	0           	                	;
 O-AV-252        	861.7       	0           	                	;
 O-AV-253        	873.7       	0           	                	;
 O-AV-254        	830.3       	0           	                	;
 O-AV-255        	873.1       	0           	                	;
 O-AV-256        	875.7       	0           	                	;
 O-AV-257        	872         	0           	                	;
 O-AV-258        	873.4       	0           	                	;
 O-AV-259        	871.7       	0           	                	;
 O-AV-26         	836.5       	0           	                	;
 O-AV-260        	881.7       	0           	                	;
 O-AV-261        	883.3       	0           	                	;
 O-AV-262        	884         	0           	                	;
 O-AV-263        	881.4       	0           	                	;
 O-AV-264        	847.3       	0           	                	;
 O-AV-265        	868.2       	0           	                	;
 O-AV-266        	868.9       	0           	                	;
 O-AV-267        	867.9       	0           	                	;
 O-AV-268        	844.5       	0           	                	;
 O-AV-269        	840.4       	0           	                	;
 O-AV-27         	927.6       	0           	                	;
 O-AV-270        	794.7       	0           	                	;
 O-AV-271        	797.8       	0           	                	;
 O-AV-272        	810.6       	0           	                	;
 O-AV-273        	819         	0           	                	;
 O-AV-274        	817.9       	0           	                	;
 O-AV-275        	849.3       	0           	                	;
 O-AV-276        	841.4       	0           	                	;
 O-AV-277        	852.2       	0           	                	;
 O-AV-278        	853.1       	0           	                	;
 O-AV-279        	850.3       	0           	                	;
 O-AV-28         	917.8       	0           	                	;
 O-AV-280        	787.9       	0           	                	;
 O-AV-281        	793.4       	0           	                	;
 O-AV-282        	794.3       	0           	                	;
 O-AV-283        	797.7       	0           	                	;
 O-AV-284        	811.4       	0           	                	;
 O-AV-285        	810.7       	0           	                	;
 O-AV-286        	849.5       	0           	                	;
 O-AV-287        	834         	0           	                	;
 O-AV-288        	834         	0           	                	;
 O-AV-289        	834.6       	0           	                	;
 O-AV-29         	912.7       	0           	                	;
 O-AV-290        	822.1       	0           	                	;
 O-AV-291        	805.5       	0           	                	;
 O-AV-292        	802.6       	0           	                	;
 O-AV-293        	809.9       	0           	                	;
 O-AV-294        	809.4       	0           	                	;
 O-AV-295        	807.9       	0           	                	;
 O-AV-296        	808.9       	0           	                	;
 O-AV-297        	849.3       	0           	                	;
 O-AV-298        	811.2       	0           	                	;
 O-AV-299        	811.4       	0           	                	;
 O-AV-3          	824.7       	0           	                	;
 O-AV-30         	904.4       	0           	                	;
 O-AV-300        	796.9       	0           	                	;
 O-AV-301        	796.7       	0           	                	;
 O-AV-302        	798.1       	0           	                	;
 O-AV-303        	796.3       	0           	                	;
 O-AV-304        	790.1       	0           	                	;
 O-AV-305        	789.5       	0           	                	;
 O-AV-306        	791.1       	0           	                	;
 O-AV-307        	792.6       	0           	                	;
 O-AV-308        	877         	0           	                	;
 O-AV-309        	792.8       	0           	                	;
 O-AV-31         	907.7       	0           	                	;
 O-AV-310        	808.4       	0           	                	;
 O-AV-311        	803.7       	0           	                	;
 O-AV-312        	806.5       	0           	                	;
 O-AV-313        	803.9       	0           	                	;
 O-AV-314        	797.9       	0           	                	;
 O-AV-315        	783.8       	0           	                	;
 O-AV-316        	816.9       	0           	                	;
 O-AV-317        	820.3       	0           	                	;
 O-AV-318        	819.9       	0           	                	;
 O-AV-319        	877         	0           	                	;
 O-AV-32         	903.5       	0           	                	;
 O-AV-320        	820.4       	0           	                	;
 O-AV-321        	808.6       	0           	                	;
 O-AV-322        	806.8       	0           	                	;
 O-AV-323        	792.4       	0           	                	;
 O-AV-324        	789.1       	0           	                	;
 O-AV-325        	817.7       	0           	                	;
 O-AV-326        	816.4       	0           	                	;
 O-AV-327        	818.4       	0           	                	;
 O-AV-328        	803.4       	0           	                	;
 O-AV-329        	834.1       	0           	                	;
 O-AV-33         	910.3       	0           	                	;
 O-AV-330        	895.4       	0           	                	;
 O-AV-331        	879         	0           	                	;
 O-AV-332        	834.9       	0           	                	;
 O-AV-333        	835.5       	0           	                	;
 O-AV-334        	836.2       	0           	                	;
 O-AV-335        	836.2       	0           	                	;
 O-AV-336        	835.5       	0           	                	;
 O-AV-337        	852.6       	0           	                	;
 O-AV-338        	790.3       	0           	                	;
 O-AV-339        	790         	0           	                	;
 O-AV-34         	909.5       	0           	                	;
 O-AV-340        	838.8       	0           	                	;
 O-AV-341        	846.9       	0           	                	;
 O-AV-342        	862.3       	0           	                	;
 O-AV-343        	842.2       	0           	                	;
 O-AV-344        	838.9       	0           	                	;
 O-AV-345        	801.4       	0           	                	;
 O-AV-346        	794.3       	0           	                	;
 O-AV-347        	806.5       	0           	                	;
 O-AV-348        	818.7       	0           	                	;
 O-AV-349        	864.9       	0           	                	;
 O-AV-35         	891.1       	0           	                	;
 O-AV-350        	863.8       	0           	                	;
 O-AV-351        	846.9       	0           	                	;
 O-AV-352        	850.2       	0           	                	;
 O-AV-353        	854.2       	0           	                	;
 O-AV-354        	872.4       	0           	                	;
 O-AV-355        	810         	0           	                	;
 O-AV-356        	809.8       	0           	                	;
 O-AV-357        	808.2       	0           	                	;
 O-AV-358        	816.5       	0           	                	;
 O-AV-359        	845.3       	0           	                	;
 O-AV-36         	921.4       	0           	                	;
 O-AV-360        	851.7       	0           	                	;
 O-AV-361        	858.6       	0           	                	;
 O-AV-362        	859.7       	0           	                	;
 O-AV-363        	848.2       	0           	                	;
 O-AV-364        	856.1       	0           	                	;
 O-AV-365        	849.6       	0           	                	;
 O-AV-366        	843.6       	0           	                	;
 O-AV-367        	848.2       	0           	                	;
 O-AV-368        	853.6       	0           	                	;
 O-AV-369        	853.3       	0           	                	;
 O-AV-37         	847         	0           	                	;
 O-AV-370        	810.2       	0           	                	;
 O-AV-371        	809.6       	0           	                	;
 O-AV-372        	809.2       	0           	                	;
 O-AV-373        	809.2       	0           	                	;
 O-AV-374        	806.9       	0           	                	;
 O-AV-375        	858.8       	0           	                	;
 O-AV-376        	805         	0           	                	;
 O-AV-377        	856.4       	0           	                	;
 O-AV-378        	865.7       	0           	                	;
 O-AV-379        	867.9       	0           	                	;
 O-AV-38         	913.5       	0           	                	;
 O-AV-380        	869.8       	0           	                	;
 O-AV-381        	853.9       	0           	                	;
 O-AV-382        	857.8       	0           	                	;
 O-AV-383        	859.7       	0           	                	;
 O-AV-384        	857.8       	0           	                	;
 O-AV-385        	821.8       	0           	                	;
 O-AV-386        	865.3       	0           	                	;
 O-AV-387        	810.9       	0           	                	;
 O-AV-388        	811.8       	0           	                	;
 O-AV-389        	843.6       	0           	                	;
 O-AV-39         	914.9       	0           	                	;
 O-AV-390        	845.2       	0           	                	;
 O-AV-391        	835.1       	0           	                	;
 O-AV-392        	837         	0           	                	;
 O-AV-393        	832.5       	0           	                	;
 O-AV-394        	870.3       	0           	                	;
 O-AV-395        	870.3       	0           	                	;
 O-AV-396        	869         	0           	                	;
 O-AV-397        	866.5       	0           	                	;
 O-AV-398        	867.5       	0           	                	;
 O-AV-399        	824         	0           	                	;
 O-AV-4          	874.6       	0           	                	;
 O-AV-40         	878.4       	0           	                	;
 O-AV-400        	822.5       	0           	                	;
 O-AV-401        	823.1       	0           	                	;
 O-AV-402        	814.6       	0           	                	;
 O-AV-403        	810.8       	0           	                	;
 O-AV-404        	803.2       	0           	                	;
 O-AV-405        	867.9       	0           	                	;
 O-AV-406        	867.9       	0           	                	;
 O-AV-407        	867.7       	0           	                	;
 O-AV-408        	869.4       	0           	                	;
 O-AV-409        	822.9       	0           	                	;
 O-AV-41         	878.5       	0           	                	;
 O-AV-410        	821.1       	0           	                	;
 O-AV-411        	870.4       	0           	                	;
 O-AV-412        	863.2       	0           	                	;
 O-AV-413        	831.7       	0           	                	;
 O-AV-414        	893.3       	0           	                	;
 O-AV-415        	833.1       	0           	                	;
 O-AV-416        	833.8       	0           	                	;
 O-AV-417        	833         	0           	                	;
 O-AV-418        	825.1       	0           	                	;
 O-AV-419        	829.5       	0           	                	;
 O-AV-42         	879.1       	0           	                	;
 O-AV-420        	847.9       	0           	                	;
 O-AV-421        	847.9       	0           	                	;
 O-AV-422        	858.6       	0           	                	;
 O-AV-423        	845.9       	0           	                	;
 O-AV-424        	851.9       	0           	                	;
 O-AV-425        	873.8       	0           	                	;
 O-AV-426        	863.2       	0           	                	;
 O-AV-427        	882.9       	0           	                	;
 O-AV-428        	883.4       	0           	                	;
 O-AV-429        	882.1       	0           	                	;
 O-AV-43         	875.9       	0           	                	;
 O-AV-430        	874.6       	0           	                	;
 O-AV-431        	876.5       	0           	                	;
 O-AV-432        	889.6       	0           	                	;
 O-AV-433        	894.8       	0           	                	;
 O-AV-434        	897.1       	0           	                	;
 O-AV-435        	870.2       	0           	                	;
 O-AV-436        	873.4       	0           	                	;
 O-AV-437        	859.8       	0           	                	;
 O-AV-438        	859.7       	0           	                	;
 O-AV-439        	862.4       	0           	                	;
 O-AV-44         	860.4       	0           	                	;
 O-AV-440        	861.6       	0           	                	;
 O-AV-441        	886.6       	0           	                	;
 O-AV-442        	886.6       	0           	                	;
 O-AV-443        	888.8       	0           	                	;
 O-AV-444        	846.7       	0           	                	;
 O-AV-445        	862         	0           	                	;
 O-AV-446        	859.7       	0           	                	;
 O-AV-447        	878         	0           	                	;
 O-AV-448        	902         	0           	                	;
 O-AV-449        	902.9       	0           	                	;
 O-AV-45         	860.7       	0           	                	;
 O-AV-450        	917         	0           	                	;
 O-AV-451        	884.3       	0           	                	;
 O-AV-452        	900.3       	0           	                	;
 O-AV-453        	899.7       	0           	                	;
 O-AV-454        	878.2       	0           	                	;
 O-AV-455        	878.8       	0           	                	;
 O-AV-456        	871.6       	0           	                	;
 O-AV-457        	872.8       	0           	                	;
 O-AV-458        	872.7       	0           	                	;
 O-AV-459        	859.1       	0           	                	;
 O-AV-46         	868.7       	0           	                	;
 O-AV-460        	844.9       	0           	                	;
 O-AV-461        	839.9       	0           	                	;
 O-AV-462        	830.1       	0           	                	;
 O-AV-463        	833.8       	0           	                	;
 O-AV-464        	834         	0           	                	;
 O-AV-465        	835.2       	0           	                	;
 O-AV-466        	842         	0           	                	;
 O-AV-467        	849.4       	0           	                	;
 O-AV-468        	864.5       	0           	                	;
 O-AV-47         	882.8       	0           	                	;
 O-AV-48         	844.1       	0           	                	;
 O-AV-49         	894.8       	0           	                	;
 O-AV-5          	861.7       	0           	                	;
 O-AV-50         	894.7       	0           	                	;
 O-AV-51         	901.8       	0           	                	;
 O-AV-52         	901.2       	0           	                	;
 O-AV-53         	901.8       	0           	                	;
 O-AV-54         	902.6       	0           	                	;
 O-AV-55         	901.8       	0           	                	;
 O-AV-56         	902.6       	0           	                	;
 O-AV-57         	898.6       	0           	                	;
 O-AV-58         	898.1       	0           	                	;
 O-AV-59         	845.4       	0           	                	;
 O-AV-6          	873.4       	0           	                	;
 O-AV-60         	898.1       	0           	                	;
 O-AV-61         	898         	0           	                	;
 O-AV-62         	897         	0           	                	;
 O-AV-63         	897.5       	0           	                	;
 O-AV-64         	885.8       	0           	                	;
 O-AV-65         	892.1       	0           	                	;
 O-AV-66         	893         	0           	                	;
 O-AV-67         	893.5       	0           	                	;
 O-AV-68         	892         	0           	                	;
 O-AV-69         	891.1       	0           	                	;
 O-AV-7          	887.4       	0           	                	;
 O-AV-70         	839.8       	0           	                	;
 O-AV-71         	892.3       	0           	                	;
 O-AV-72         	882.1       	0           	                	;
 O-AV-73         	892.4       	0           	                	;
 O-AV-74         	858.3       	0           	                	;
 O-AV-75         	864.1       	0           	                	;
 O-AV-76         	869.7       	0           	                	;
 O-AV-77         	864.4       	0           	                	;
 O-AV-78         	864.2       	0           	                	;
 O-AV-79         	860.1       	0           	                	;
 O-AV-8          	888.1       	0           	                	;
 O-AV-80         	858.2       	0           	                	;
 O-AV-81         	838.2       	0           	                	;
 O-AV-82         	897.6       	0           	                	;
 O-AV-83         	897.7       	0           	                	;
 O-AV-84         	897.1       	0           	                	;
 O-AV-85         	868         	0           	                	;
 O-AV-86         	868.6       	0           	                	;
 O-AV-87         	868.5       	0           	                	;
 O-AV-88         	872.8       	0           	                	;
 O-AV-89         	872.6       	0           	                	;
 O-AV-9          	888.5       	0           	                	;
 O-AV-90         	873.1       	0           	                	;
 O-AV-91         	861.1       	0           	                	;
 O-AV-92         	825.6       	0           	                	;
 O-AV-93         	860.5       	0           	                	;
 O-AV-94         	852.5       	0           	                	;
 O-AV-95         	852.5       	0           	                	;
 O-AV-96         	852.2       	0           	                	;
 O-AV-97         	868.3       	0           	                	;
 O-AV-98         	858.2       	0           	                	;
 O-AV-99         	868.6       	0           	                	;
 O-Pump-1        	789         	0           	                	;
 O-Pump-2        	789         	0           	                	;
 O-Pump-3        	892.4       	0           	                	;
 O-P-~@Pump-1    	789         	0           	                	;
 O-P-~@Pump-2    	789         	0           	                	;
 O-P-~@Pump-3    	892.4       	0           	                	;
 O-V-~@AV-1      	892.4       	0           	                	;
 O-V-~@AV-10     	887.7       	0           	                	;
 O-V-~@AV-100    	868.2       	0           	                	;
 O-V-~@AV-101    	887.8       	0           	                	;
 O-V-~@AV-102    	837.8       	0           	                	;
 O-V-~@AV-103    	888.7       	0           	                	;
 O-V-~@AV-104    	887.1       	0           	                	;
 O-V-~@AV-105    	847.9       	0           	                	;
 O-V-~@AV-106    	851.8       	0           	                	;
 O-V-~@AV-107    	845.9       	0           	                	;
 O-V-~@AV-108    	843.8       	0           	                	;
 O-V-~@AV-109    	846.3       	0           	                	;
 O-V-~@AV-11     	888.5       	0           	                	;
 O-V-~@AV-110    	871.3       	0           	                	;
 O-V-~@AV-111    	871.3       	0           	                	;
 O-V-~@AV-112    	869.5       	0           	                	;
 O-V-~@AV-113    	869.7       	0           	                	;
 O-V-~@AV-114    	839.3       	0           	                	;
 O-V-~@AV-115    	869.8       	0           	                	;
 O-V-~@AV-116    	870.1       	0           	                	;
 O-V-~@AV-117    	855.1       	0           	                	;
 O-V-~@AV-118    	855.4       	0           	                	;
 O-V-~@AV-119    	871.3       	0           	                	;
 O-V-~@AV-12     	885.8       	0           	                	;
 O-V-~@AV-120    	872.2       	0           	                	;
 O-V-~@AV-121    	872.9       	0           	                	;
 O-V-~@AV-122    	872.7       	0           	                	;
 O-V-~@AV-123    	872.5       	0           	                	;
 O-V-~@AV-124    	849.1       	0           	                	;
 O-V-~@AV-125    	861.3       	0           	                	;
 O-V-~@AV-126    	858.8       	0           	                	;
 O-V-~@AV-127    	835.2       	0           	                	;
 O-V-~@AV-128    	841.3       	0           	                	;
 O-V-~@AV-129    	849.5       	0           	                	;
 O-V-~@AV-13     	871.1       	0           	                	;
 O-V-~@AV-130    	843.4       	0           	                	;
 O-V-~@AV-131    	860.1       	0           	                	;
 O-V-~@AV-132    	859.3       	0           	                	;
 O-V-~@AV-133    	858.7       	0           	                	;
 O-V-~@AV-134    	855         	0           	                	;
 O-V-~@AV-135    	863.1       	0           	                	;
 O-V-~@AV-136    	852.9       	0           	                	;
 O-V-~@AV-137    	829.9       	0           	                	;
 O-V-~@AV-138    	834.1       	0           	                	;
 O-V-~@AV-139    	866.7       	0           	                	;
 O-V-~@AV-14     	871.3       	0           	                	;
 O-V-~@AV-140    	929.1       	0           	                	;
 O-V-~@AV-141    	924.9       	0           	                	;
 O-V-~@AV-142    	918.3       	0           	                	;
 O-V-~@AV-143    	900         	0           	                	;
 O-V-~@AV-144    	900.2       	0           	                	;
 O-V-~@AV-145    	901.8       	0           	                	;
 O-V-~@AV-146    	863.1       	0           	                	;
 O-V-~@AV-147    	920.7       	0           	                	;
 O-V-~@AV-148    	833.3       	0           	                	;
 O-V-~@AV-149    	834.8       	0           	                	;
 O-V-~@AV-15     	843.9       	0           	                	;
 O-V-~@AV-150    	812.5       	0           	                	;
 O-V-~@AV-151    	821.4       	0           	                	;
 O-V-~@AV-152    	821.6       	0           	                	;
 O-V-~@AV-153    	838.1       	0           	                	;
 O-V-~@AV-154    	841.5       	0           	                	;
 O-V-~@AV-155    	850.8       	0           	                	;
 O-V-~@AV-156    	852.3       	0           	                	;
 O-V-~@AV-157    	865.6       	0           	                	;
 O-V-~@AV-158    	837.1       	0           	                	;
 O-V-~@AV-159    	836.2       	0           	                	;
 O-V-~@AV-16     	861.6       	0           	                	;
 O-V-~@AV-160    	836.9       	0           	                	;
 O-V-~@AV-161    	833.5       	0           	                	;
 O-V-~@AV-162    	827.3       	0           	                	;
 O-V-~@AV-163    	834.8       	0           	                	;
 O-V-~@AV-164    	842.4       	0           	                	;
 O-V-~@AV-165    	825.3       	0           	                	;
 O-V-~@AV-166    	825.3       	0           	                	;
 O-V-~@AV-167    	816.3       	0           	                	;
 O-V-~@AV-168    	873.5       	0           	                	;
 O-V-~@AV-169    	816.6       	0           	                	;
 O-V-~@AV-17     	860.5       	0           	                	;
 O-V-~@AV-170    	817.5       	0           	                	;
 O-V-~@AV-171    	842.3       	0           	                	;
 O-V-~@AV-172    	842.4       	0           	                	;
 O-V-~@AV-173    	807.9       	0           	                	;
 O-V-~@AV-174    	832.6       	0           	                	;
 O-V-~@AV-175    	834.2       	0           	                	;
 O-V-~@AV-176    	836.8       	0           	                	;
 O-V-~@AV-177    	838.3       	0           	                	;
 O-V-~@AV-178    	856.6       	0           	                	;
 O-V-~@AV-179    	879.7       	0           	                	;
 O-V-~@AV-18     	859.2       	0           	                	;
 O-V-~@AV-180    	856.6       	0           	                	;
 O-V-~@AV-181    	856.6       	0           	                	;
 O-V-~@AV-182    	854.4       	0           	                	;
 O-V-~@AV-183    	867.2       	0           	                	;
 O-V-~@AV-184    	869.8       	0           	                	;
 O-V-~@AV-185    	833.1       	0           	                	;
 O-V-~@AV-186    	834         	0           	                	;
 O-V-~@AV-187    	835.2       	0           	                	;
 O-V-~@AV-188    	813.6       	0           	                	;
 O-V-~@AV-189    	815.6       	0           	                	;
 O-V-~@AV-19     	852.5       	0           	                	;
 O-V-~@AV-190    	833.5       	0           	                	;
 O-V-~@AV-191    	807.2       	0           	                	;
 O-V-~@AV-192    	806.2       	0           	                	;
 O-V-~@AV-193    	804.2       	0           	                	;
 O-V-~@AV-194    	809.1       	0           	                	;
 O-V-~@AV-195    	835.4       	0           	                	;
 O-V-~@AV-196    	869         	0           	                	;
 O-V-~@AV-197    	868.1       	0           	                	;
 O-V-~@AV-198    	870         	0           	                	;
 O-V-~@AV-199    	816.4       	0           	                	;
 O-V-~@AV-2      	875         	0           	                	;
 O-V-~@AV-20     	849.7       	0           	                	;
 O-V-~@AV-200    	868.1       	0           	                	;
 O-V-~@AV-201    	849.5       	0           	                	;
 O-V-~@AV-202    	849.3       	0           	                	;
 O-V-~@AV-204    	843         	0           	                	;
 O-V-~@AV-205    	843.3       	0           	                	;
 O-V-~@AV-206    	851.5       	0           	                	;
 O-V-~@AV-207    	852.8       	0           	                	;
 O-V-~@AV-208    	857.8       	0           	                	;
 O-V-~@AV-209    	857.1       	0           	                	;
 O-V-~@AV-21     	844.9       	0           	                	;
 O-V-~@AV-210    	843.5       	0           	                	;
 O-V-~@AV-211    	856.9       	0           	                	;
 O-V-~@AV-212    	859.7       	0           	                	;
 O-V-~@AV-213    	850.5       	0           	                	;
 O-V-~@AV-214    	853.3       	0           	                	;
 O-V-~@AV-215    	848.8       	0           	                	;
 O-V-~@AV-216    	847.6       	0           	                	;
 O-V-~@AV-217    	805.2       	0           	                	;
 O-V-~@AV-218    	805         	0           	                	;
 O-V-~@AV-219    	794.7       	0           	                	;
 O-V-~@AV-22     	847.3       	0           	                	;
 O-V-~@AV-220    	797.6       	0           	                	;
 O-V-~@AV-221    	890.8       	0           	                	;
 O-V-~@AV-222    	848.1       	0           	                	;
 O-V-~@AV-223    	797.6       	0           	                	;
 O-V-~@AV-224    	796.2       	0           	                	;
 O-V-~@AV-225    	815.4       	0           	                	;
 O-V-~@AV-226    	840         	0           	                	;
 O-V-~@AV-227    	852.9       	0           	                	;
 O-V-~@AV-228    	842.6       	0           	                	;
 O-V-~@AV-229    	832.9       	0           	                	;
 O-V-~@AV-23     	838.8       	0           	                	;
 O-V-~@AV-230    	859.6       	0           	                	;
 O-V-~@AV-231    	860.3       	0           	                	;
 O-V-~@AV-232    	860.7       	0           	                	;
 O-V-~@AV-233    	806.8       	0           	                	;
 O-V-~@AV-234    	860.4       	0           	                	;
 O-V-~@AV-235    	860.3       	0           	                	;
 O-V-~@AV-236    	860.4       	0           	                	;
 O-V-~@AV-237    	860.4       	0           	                	;
 O-V-~@AV-238    	858.9       	0           	                	;
 O-V-~@AV-239    	859.4       	0           	                	;
 O-V-~@AV-24     	839.1       	0           	                	;
 O-V-~@AV-240    	859.4       	0           	                	;
 O-V-~@AV-241    	859.4       	0           	                	;
 O-V-~@AV-242    	855.6       	0           	                	;
 O-V-~@AV-243    	855.3       	0           	                	;
 O-V-~@AV-244    	829.8       	0           	                	;
 O-V-~@AV-245    	828.4       	0           	                	;
 O-V-~@AV-246    	844.9       	0           	                	;
 O-V-~@AV-247    	848.1       	0           	                	;
 O-V-~@AV-248    	835         	0           	                	;
 O-V-~@AV-249    	836.1       	0           	                	;
 O-V-~@AV-25     	837.6       	0           	                	;
 O-V-~@AV-250    	835         	0           	                	;
 O-V-~@AV-251    	837.9       	0           	                	;
 O-V-~@AV-252    	861.7       	0           	                	;
 O-V-~@AV-253    	873.7       	0           	                	;
 O-V-~@AV-254    	830.3       	0           	                	;
 O-V-~@AV-255    	873.1       	0           	                	;
 O-V-~@AV-256    	875.7       	0           	                	;
 O-V-~@AV-257    	872         	0           	                	;
 O-V-~@AV-258    	873.4       	0           	                	;
 O-V-~@AV-259    	871.7       	0           	                	;
 O-V-~@AV-26     	836.5       	0           	                	;
 O-V-~@AV-260    	881.7       	0           	                	;
 O-V-~@AV-261    	883.3       	0           	                	;
 O-V-~@AV-262    	884         	0           	                	;
 O-V-~@AV-263    	881.4       	0           	                	;
 O-V-~@AV-264    	847.3       	0           	                	;
 O-V-~@AV-265    	868.2       	0           	                	;
 O-V-~@AV-266    	868.9       	0           	                	;
 O-V-~@AV-267    	867.9       	0           	                	;
 O-V-~@AV-268    	844.5       	0           	                	;
 O-V-~@AV-269    	840.4       	0           	                	;
 O-V-~@AV-27     	927.6       	0           	                	;
 O-V-~@AV-270    	794.7       	0           	                	;
 O-V-~@AV-271    	797.8       	0           	                	;
 O-V-~@AV-272    	810.6       	0           	                	;
 O-V-~@AV-273    	819         	0           	                	;
 O-V-~@AV-274    	817.9       	0           	                	;
 O-V-~@AV-275    	849.3       	0           	                	;
 O-V-~@AV-276    	841.4       	0           	                	;
 O-V-~@AV-277    	852.2       	0           	                	;
 O-V-~@AV-278    	853.1       	0           	                	;
 O-V-~@AV-279    	850.3       	0           	                	;
 O-V-~@AV-28     	917.8       	0           	                	;
 O-V-~@AV-280    	787.9       	0           	                	;
 O-V-~@AV-281    	793.4       	0           	                	;
 O-V-~@AV-282    	794.3       	0           	                	;
 O-V-~@AV-283    	797.7       	0           	                	;
 O-V-~@AV-284    	811.4       	0           	                	;
 O-V-~@AV-285    	810.7       	0           	                	;
 O-V-~@AV-286    	849.5       	0           	                	;
 O-V-~@AV-287    	834         	0           	                	;
 O-V-~@AV-288    	834         	0           	                	;
 O-V-~@AV-289    	834.6       	0           	                	;
 O-V-~@AV-29     	912.7       	0           	                	;
 O-V-~@AV-290    	822.1       	0           	                	;
 O-V-~@AV-291    	805.5       	0           	                	;
 O-V-~@AV-292    	802.6       	0           	                	;
 O-V-~@AV-293    	809.9       	0           	                	;
 O-V-~@AV-294    	809.4       	0           	                	;
 O-V-~@AV-295    	807.9       	0           	                	;
 O-V-~@AV-296    	808.9       	0           	                	;
 O-V-~@AV-297    	849.3       	0           	                	;
 O-V-~@AV-298    	811.2       	0           	                	;
 O-V-~@AV-299    	811.4       	0           	                	;
 O-V-~@AV-3      	824.7       	0           	                	;
 O-V-~@AV-30     	904.4       	0           	                	;
 O-V-~@AV-300    	796.9       	0           	                	;
 O-V-~@AV-301    	796.7       	0           	                	;
 O-V-~@AV-302    	798.1       	0           	                	;
 O-V-~@AV-303    	796.3       	0           	                	;
 O-V-~@AV-304    	790.1       	0           	                	;
 O-V-~@AV-305    	789.5       	0           	                	;
 O-V-~@AV-306    	791.1       	0           	                	;
 O-V-~@AV-307    	792.6       	0           	                	;
 O-V-~@AV-308    	877         	0           	                	;
 O-V-~@AV-309    	792.8       	0           	                	;
 O-V-~@AV-31     	907.7       	0           	                	;
 O-V-~@AV-310    	808.4       	0           	                	;
 O-V-~@AV-311    	803.7       	0           	                	;
 O-V-~@AV-312    	806.5       	0           	                	;
 O-V-~@AV-313    	803.9       	0           	                	;
 O-V-~@AV-314    	797.9       	0           	                	;
 O-V-~@AV-315    	783.8       	0           	                	;
 O-V-~@AV-316    	816.9       	0           	                	;
 O-V-~@AV-317    	820.3       	0           	                	;
 O-V-~@AV-318    	819.9       	0           	                	;
 O-V-~@AV-319    	877         	0           	                	;
 O-V-~@AV-32     	903.5       	0           	                	;
 O-V-~@AV-320    	820.4       	0           	                	;
 O-V-~@AV-321    	808.6       	0           	                	;
 O-V-~@AV-322    	806.8       	0           	                	;
 O-V-~@AV-323    	792.4       	0           	                	;
 O-V-~@AV-324    	789.1       	0           	                	;
 O-V-~@AV-325    	817.7       	0           	                	;
 O-V-~@AV-326    	816.4       	0           	                	;
 O-V-~@AV-327    	818.4       	0           	                	;
 O-V-~@AV-328    	803.4       	0           	                	;
 O-V-~@AV-329    	834.1       	0           	                	;
 O-V-~@AV-33     	910.3       	0           	                	;
 O-V-~@AV-330    	895.4       	0           	                	;
 O-V-~@AV-331    	879         	0           	                	;
 O-V-~@AV-332    	834.9       	0           	                	;
 O-V-~@AV-333    	835.5       	0           	                	;
 O-V-~@AV-334    	836.2       	0           	                	;
 O-V-~@AV-335    	836.2       	0           	                	;
 O-V-~@AV-336    	835.5       	0           	                	;
 O-V-~@AV-337    	852.6       	0           	                	;
 O-V-~@AV-338    	790.3       	0           	                	;
 O-V-~@AV-339    	790         	0           	                	;
 O-V-~@AV-34     	909.5       	0           	                	;
 O-V-~@AV-340    	838.8       	0           	                	;
 O-V-~@AV-341    	846.9       	0           	                	;
 O-V-~@AV-342    	862.3       	0           	                	;
 O-V-~@AV-343    	842.2       	0           	                	;
 O-V-~@AV-344    	838.9       	0           	                	;
 O-V-~@AV-345    	801.4       	0           	                	;
 O-V-~@AV-346    	794.3       	0           	                	;
 O-V-~@AV-347    	806.5       	0           	                	;
 O-V-~@AV-348    	818.7       	0           	                	;
 O-V-~@AV-349    	864.9       	0           	                	;
 O-V-~@AV-35     	891.1       	0           	                	;
 O-V-~@AV-350    	863.8       	0           	                	;
 O-V-~@AV-351    	846.9       	0           	                	;
 O-V-~@AV-352    	850.2       	0           	                	;
 O-V-~@AV-353    	854.2       	0           	                	;
 O-V-~@AV-354    	872.4       	0           	                	;
 O-V-~@AV-355    	810         	0           	                	;
 O-V-~@AV-356    	809.8       	0           	                	;
 O-V-~@AV-357    	808.2       	0           	                	;
 O-V-~@AV-358    	816.5       	0           	                	;
 O-V-~@AV-359    	845.3       	0           	                	;
 O-V-~@AV-36     	921.4       	0           	                	;
 O-V-~@AV-360    	851.7       	0           	                	;
 O-V-~@AV-361    	858.6       	0           	                	;
 O-V-~@AV-362    	859.7       	0           	                	;
 O-V-~@AV-363    	848.2       	0           	                	;
 O-V-~@AV-364    	856.1       	0           	                	;
 O-V-~@AV-365    	849.6       	0           	                	;
 O-V-~@AV-366    	843.6       	0           	                	;
 O-V-~@AV-367    	848.2       	0           	                	;
 O-V-~@AV-368    	853.6       	0           	                	;
 O-V-~@AV-369    	853.3       	0           	                	;
 O-V-~@AV-37     	847         	0           	                	;
 O-V-~@AV-370    	810.2       	0           	                	;
 O-V-~@AV-371    	809.6       	0           	                	;
 O-V-~@AV-372    	809.2       	0           	                	;
 O-V-~@AV-373    	809.2       	0           	                	;
 O-V-~@AV-374    	806.9       	0           	                	;
 O-V-~@AV-375    	858.8       	0           	                	;
 O-V-~@AV-376    	805         	0           	                	;
 O-V-~@AV-377    	856.4       	0           	                	;
 O-V-~@AV-378    	865.7       	0           	                	;
 O-V-~@AV-379    	867.9       	0           	                	;
 O-V-~@AV-38     	913.5       	0           	                	;
 O-V-~@AV-380    	869.8       	0           	                	;
 O-V-~@AV-381    	853.9       	0           	                	;
 O-V-~@AV-382    	857.8       	0           	                	;
 O-V-~@AV-383    	859.7       	0           	                	;
 O-V-~@AV-384    	857.8       	0           	                	;
 O-V-~@AV-385    	821.8       	0           	                	;
 O-V-~@AV-386    	865.3       	0           	                	;
 O-V-~@AV-387    	810.9       	0           	                	;
 O-V-~@AV-388    	811.8       	0           	                	;
 O-V-~@AV-389    	843.6       	0           	                	;
 O-V-~@AV-39     	914.9       	0           	                	;
 O-V-~@AV-390    	845.2       	0           	                	;
 O-V-~@AV-391    	835.1       	0           	                	;
 O-V-~@AV-392    	837         	0           	                	;
 O-V-~@AV-393    	832.5       	0           	                	;
 O-V-~@AV-394    	870.3       	0           	                	;
 O-V-~@AV-395    	870.3       	0           	                	;
 O-V-~@AV-396    	869         	0           	                	;
 O-V-~@AV-397    	866.5       	0           	                	;
 O-V-~@AV-398    	867.5       	0           	                	;
 O-V-~@AV-399    	824         	0           	                	;
 O-V-~@AV-4      	874.6       	0           	                	;
 O-V-~@AV-40     	878.4       	0           	                	;
 O-V-~@AV-400    	822.5       	0           	                	;
 O-V-~@AV-401    	823.1       	0           	                	;
 O-V-~@AV-402    	814.6       	0           	                	;
 O-V-~@AV-403    	810.8       	0           	                	;
 O-V-~@AV-404    	803.2       	0           	                	;
 O-V-~@AV-405    	867.9       	0           	                	;
 O-V-~@AV-406    	867.9       	0           	                	;
 O-V-~@AV-407    	867.7       	0           	                	;
 O-V-~@AV-408    	869.4       	0           	                	;
 O-V-~@AV-409    	822.9       	0           	                	;
 O-V-~@AV-41     	878.5       	0           	                	;
 O-V-~@AV-410    	821.1       	0           	                	;
 O-V-~@AV-411    	870.4       	0           	                	;
 O-V-~@AV-412    	863.2       	0           	                	;
 O-V-~@AV-413    	831.7       	0           	                	;
 O-V-~@AV-414    	893.3       	0           	                	;
 O-V-~@AV-415    	833.1       	0           	                	;
 O-V-~@AV-416    	833.8       	0           	                	;
 O-V-~@AV-417    	833         	0           	                	;
 O-V-~@AV-418    	825.1       	0           	                	;
 O-V-~@AV-419    	829.5       	0           	                	;
 O-V-~@AV-42     	879.1       	0           	                	;
 O-V-~@AV-420    	847.9       	0           	                	;
 O-V-~@AV-421    	847.9       	0           	                	;
 O-V-~@AV-422    	858.6       	0           	                	;
 O-V-~@AV-423    	845.9       	0           	                	;
 O-V-~@AV-424    	851.9       	0           	                	;
 O-V-~@AV-425    	873.8       	0           	                	;
 O-V-~@AV-426    	863.2       	0           	                	;
 O-V-~@AV-427    	882.9       	0           	                	;
 O-V-~@AV-428    	883.4       	0           	                	;
 O-V-~@AV-429    	882.1       	0           	                	;
 O-V-~@AV-43     	875.9       	0           	                	;
 O-V-~@AV-430    	874.6       	0           	                	;
 O-V-~@AV-431    	876.5       	0           	                	;
 O-V-~@AV-432    	889.6       	0           	                	;
 O-V-~@AV-433    	894.8       	0           	                	;
 O-V-~@AV-434    	897.1       	0           	                	;
 O-V-~@AV-435    	870.2       	0           	                	;
 O-V-~@AV-436    	873.4       	0           	                	;
 O-V-~@AV-437    	859.8       	0           	                	;
 O-V-~@AV-438    	859.7       	0           	                	;
 O-V-~@AV-439    	862.4       	0           	                	;
 O-V-~@AV-44     	860.4       	0           	                	;
 O-V-~@AV-440    	861.6       	0           	                	;
 O-V-~@AV-441    	886.6       	0           	                	;
 O-V-~@AV-442    	886.6       	0           	                	;
 O-V-~@AV-443    	888.8       	0           	                	;
 O-V-~@AV-444    	846.7       	0           	                	;
 O-V-~@AV-445    	862         	0           	                	;
 O-V-~@AV-446    	859.7       	0           	                	;
 O-V-~@AV-447    	878         	0           	                	;
 O-V-~@AV-448    	902         	0           	                	;
 O-V-~@AV-449    	902.9       	0           	                	;
 O-V-~@AV-45     	860.7       	0           	                	;
 O-V-~@AV-450    	917         	0           	                	;
 O-V-~@AV-451    	884.3       	0           	                	;
 O-V-~@AV-452    	900.3       	0           	                	;
 O-V-~@AV-453    	899.7       	0           	                	;
 O-V-~@AV-454    	878.2       	0           	                	;
 O-V-~@AV-455    	878.8       	0           	                	;
 O-V-~@AV-456    	871.6       	0           	                	;
 O-V-~@AV-457    	872.8       	0           	                	;
 O-V-~@AV-458    	872.7       	0           	                	;
 O-V-~@AV-459    	859.1       	0           	                	;
 O-V-~@AV-46     	868.7       	0           	                	;
 O-V-~@AV-460    	844.9       	0           	                	;
 O-V-~@AV-461    	839.9       	0           	                	;
 O-V-~@AV-462    	830.1       	0           	                	;
 O-V-~@AV-463    	833.8       	0           	                	;
 O-V-~@AV-464    	834         	0           	                	;
 O-V-~@AV-465    	835.2       	0           	                	;
 O-V-~@AV-466    	842         	0           	                	;
 O-V-~@AV-467    	849.4       	0           	                	;
 O-V-~@AV-468    	864.5       	0           	                	;
 O-V-~@AV-47     	882.8       	0           	                	;
 O-V-~@AV-48     	844.1       	0           	                	;
 O-V-~@AV-49     	894.8       	0           	                	;
 O-V-~@AV-5      	861.7       	0           	                	;
 O-V-~@AV-50     	894.7       	0           	                	;
 O-V-~@AV-51     	901.8       	0           	                	;
 O-V-~@AV-52     	901.2       	0           	                	;
 O-V-~@AV-53     	901.8       	0           	                	;
 O-V-~@AV-54     	902.6       	0           	                	;
 O-V-~@AV-55     	901.8       	0           	                	;
 O-V-~@AV-56     	902.6       	0           	                	;
 O-V-~@AV-57     	898.6       	0           	                	;
 O-V-~@AV-58     	898.1       	0           	                	;
 O-V-~@AV-59     	845.4       	0           	                	;
 O-V-~@AV-6      	873.4       	0           	                	;
 O-V-~@AV-60     	898.1       	0           	                	;
 O-V-~@AV-61     	898         	0           	                	;
 O-V-~@AV-62     	897         	0           	                	;
 O-V-~@AV-63     	897.5       	0           	                	;
 O-V-~@AV-64     	885.8       	0           	                	;
 O-V-~@AV-65     	892.1       	0           	                	;
 O-V-~@AV-66     	893         	0           	                	;
 O-V-~@AV-67     	893.5       	0           	                	;
 O-V-~@AV-68     	892         	0           	                	;
 O-V-~@AV-69     	891.1       	0           	                	;
 O-V-~@AV-7      	887.4       	0           	                	;
 O-V-~@AV-70     	839.8       	0           	                	;
 O-V-~@AV-71     	892.3       	0           	                	;
 O-V-~@AV-72     	882.1       	0           	                	;
 O-V-~@AV-73     	892.4       	0           	                	;
 O-V-~@AV-74     	858.3       	0           	                	;
 O-V-~@AV-75     	864.1       	0           	                	;
 O-V-~@AV-76     	869.7       	0           	                	;
 O-V-~@AV-77     	864.4       	0           	                	;
 O-V-~@AV-78     	864.2       	0           	                	;
 O-V-~@AV-79     	860.1       	0           	                	;
 O-V-~@AV-8      	888.1       	0           	                	;
 O-V-~@AV-80     	858.2       	0           	                	;
 O-V-~@AV-81     	838.2       	0           	                	;
 O-V-~@AV-82     	897.6       	0           	                	;
 O-V-~@AV-83     	897.7       	0           	                	;
 O-V-~@AV-84     	897.1       	0           	                	;
 O-V-~@AV-85     	868         	0           	                	;
 O-V-~@AV-86     	868.6       	0           	                	;
 O-V-~@AV-87     	868.5       	0           	                	;
 O-V-~@AV-88     	872.8       	0           	                	;
 O-V-~@AV-89     	872.6       	0           	                	;
 O-V-~@AV-9      	888.5       	0           	                	;
 O-V-~@AV-90     	873.1       	0           	                	;
 O-V-~@AV-91     	861.1       	0           	                	;
 O-V-~@AV-92     	825.6       	0           	                	;
 O-V-~@AV-93     	860.5       	0           	                	;
 O-V-~@AV-94     	852.5       	0           	                	;
 O-V-~@AV-95     	852.5       	0           	                	;
 O-V-~@AV-96     	852.2       	0           	                	;
 O-V-~@AV-97     	868.3       	0           	                	;
 O-V-~@AV-98     	858.2       	0           	                	;
 O-V-~@AV-99     	868.6       	0           	                	;
 I-P-~@Pump-1    	789         	0           	                	;
 I-P-~@Pump-2    	789         	0           	                	;
 I-P-~@Pump-3    	892.4       	0           	                	;
 I-V-~@AV-1      	892.4       	0           	                	;
 I-V-~@AV-10     	887.7       	0           	                	;
 I-V-~@AV-100    	868.2       	0           	                	;
 I-V-~@AV-101    	887.8       	0           	                	;
 I-V-~@AV-102    	837.8       	0           	                	;
 I-V-~@AV-103    	888.7       	0           	                	;
 I-V-~@AV-104    	887.1       	0           	                	;
 I-V-~@AV-105    	847.9       	0           	                	;
 I-V-~@AV-106    	851.8       	0           	                	;
 I-V-~@AV-107    	845.9       	0           	                	;
 I-V-~@AV-108    	843.8       	0           	                	;
 I-V-~@AV-109    	846.3       	0           	                	;
 I-V-~@AV-11     	888.5       	0           	                	;
 I-V-~@AV-110    	871.3       	0           	                	;
 I-V-~@AV-111    	871.3       	0           	                	;
 I-V-~@AV-112    	869.5       	0           	                	;
 I-V-~@AV-113    	869.7       	0           	                	;
 I-V-~@AV-114    	839.3       	0           	                	;
 I-V-~@AV-115    	869.8       	0           	                	;
 I-V-~@AV-116    	870.1       	0           	                	;
 I-V-~@AV-117    	855.1       	0           	                	;
 I-V-~@AV-118    	855.4       	0           	                	;
 I-V-~@AV-119    	871.3       	0           	                	;
 I-V-~@AV-12     	885.8       	0           	                	;
 I-V-~@AV-120    	872.2       	0           	                	;
 I-V-~@AV-121    	872.9       	0           	                	;
 I-V-~@AV-122    	872.7       	0           	                	;
 I-V-~@AV-123    	872.5       	0           	                	;
 I-V-~@AV-124    	849.1       	0           	                	;
 I-V-~@AV-125    	861.3       	0           	                	;
 I-V-~@AV-126    	858.8       	0           	                	;
 I-V-~@AV-127    	835.2       	0           	                	;
 I-V-~@AV-128    	841.3       	0           	                	;
 I-V-~@AV-129    	849.5       	0           	                	;
 I-V-~@AV-13     	871.1       	0           	                	;
 I-V-~@AV-130    	843.4       	0           	                	;
 I-V-~@AV-131    	860.1       	0           	                	;
 I-V-~@AV-132    	859.3       	0           	                	;
 I-V-~@AV-133    	858.7       	0           	                	;
 I-V-~@AV-134    	855         	0           	                	;
 I-V-~@AV-135    	863.1       	0           	                	;
 I-V-~@AV-136    	852.9       	0           	                	;
 I-V-~@AV-137    	829.9       	0           	                	;
 I-V-~@AV-138    	834.1       	0           	                	;
 I-V-~@AV-139    	866.7       	0           	                	;
 I-V-~@AV-14     	871.3       	0           	                	;
 I-V-~@AV-140    	929.1       	0           	                	;
 I-V-~@AV-141    	924.9       	0           	                	;
 I-V-~@AV-142    	918.3       	0           	                	;
 I-V-~@AV-143    	900         	0           	                	;
 I-V-~@AV-144    	900.2       	0           	                	;
 I-V-~@AV-145    	901.8       	0           	                	;
 I-V-~@AV-146    	863.1       	0           	                	;
 I-V-~@AV-147    	920.7       	0           	                	;
 I-V-~@AV-148    	833.3       	0           	                	;
 I-V-~@AV-149    	834.8       	0           	                	;
 I-V-~@AV-15     	843.9       	0           	                	;
 I-V-~@AV-150    	812.5       	0           	                	;
 I-V-~@AV-151    	821.4       	0           	                	;
 I-V-~@AV-152    	821.6       	0           	                	;
 I-V-~@AV-153    	838.1       	0           	                	;
 I-V-~@AV-154    	841.5       	0           	                	;
 I-V-~@AV-155    	850.8       	0           	                	;
 I-V-~@AV-156    	852.3       	0           	                	;
 I-V-~@AV-157    	865.6       	0           	                	;
 I-V-~@AV-158    	837.1       	0           	                	;
 I-V-~@AV-159    	836.2       	0           	                	;
 I-V-~@AV-16     	861.6       	0           	                	;
 I-V-~@AV-160    	836.9       	0           	                	;
 I-V-~@AV-161    	833.5       	0           	                	;
 I-V-~@AV-162    	827.3       	0           	                	;
 I-V-~@AV-163    	834.8       	0           	                	;
 I-V-~@AV-164    	842.4       	0           	                	;
 I-V-~@AV-165    	825.3       	0           	                	;
 I-V-~@AV-166    	825.3       	0           	                	;
 I-V-~@AV-167    	816.3       	0           	                	;
 I-V-~@AV-168    	873.5       	0           	                	;
 I-V-~@AV-169    	816.6       	0           	                	;
 I-V-~@AV-17     	860.5       	0           	                	;
 I-V-~@AV-170    	817.5       	0           	                	;
 I-V-~@AV-171    	842.3       	0           	                	;
 I-V-~@AV-172    	842.4       	0           	                	;
 I-V-~@AV-173    	807.9       	0           	                	;
 I-V-~@AV-174    	832.6       	0           	                	;
 I-V-~@AV-175    	834.2       	0           	                	;
 I-V-~@AV-176    	836.8       	0           	                	;
 I-V-~@AV-177    	838.3       	0           	                	;
 I-V-~@AV-178    	856.6       	0           	                	;
 I-V-~@AV-179    	879.7       	0           	                	;
 I-V-~@AV-18     	859.2       	0           	                	;
 I-V-~@AV-180    	856.6       	0           	                	;
 I-V-~@AV-181    	856.6       	0           	                	;
 I-V-~@AV-182    	854.4       	0           	                	;
 I-V-~@AV-183    	867.2       	0           	                	;
 I-V-~@AV-184    	869.8       	0           	                	;
 I-V-~@AV-185    	833.1       	0           	                	;
 I-V-~@AV-186    	834         	0           	                	;
 I-V-~@AV-187    	835.2       	0           	                	;
 I-V-~@AV-188    	813.6       	0           	                	;
 I-V-~@AV-189    	815.6       	0           	                	;
 I-V-~@AV-19     	852.5       	0           	                	;
 I-V-~@AV-190    	833.5       	0           	                	;
 I-V-~@AV-191    	807.2       	0           	                	;
 I-V-~@AV-192    	806.2       	0           	                	;
 I-V-~@AV-193    	804.2       	0           	                	;
 I-V-~@AV-194    	809.1       	0           	                	;
 I-V-~@AV-195    	835.4       	0           	                	;
 I-V-~@AV-196    	869         	0           	                	;
 I-V-~@AV-197    	868.1       	0           	                	;
 I-V-~@AV-198    	870         	0           	                	;
 I-V-~@AV-199    	816.4       	0           	                	;
 I-V-~@AV-2      	875         	0           	                	;
 I-V-~@AV-20     	849.7       	0           	                	;
 I-V-~@AV-200    	868.1       	0           	                	;
 I-V-~@AV-201    	849.5       	0           	                	;
 I-V-~@AV-202    	849.3       	0           	                	;
 I-V-~@AV-204    	843         	0           	                	;
 I-V-~@AV-205    	843.3       	0           	                	;
 I-V-~@AV-206    	851.5       	0           	                	;
 I-V-~@AV-207    	852.8       	0           	                	;
 I-V-~@AV-208    	857.8       	0           	                	;
 I-V-~@AV-209    	857.1       	0           	                	;
 I-V-~@AV-21     	844.9       	0           	                	;
 I-V-~@AV-210    	843.5       	0           	                	;
 I-V-~@AV-211    	856.9       	0           	                	;
 I-V-~@AV-212    	859.7       	0           	                	;
 I-V-~@AV-213    	850.5       	0           	                	;
 I-V-~@AV-214    	853.3       	0           	                	;
 I-V-~@AV-215    	848.8       	0           	                	;
 I-V-~@AV-216    	847.6       	0           	                	;
 I-V-~@AV-217    	805.2       	0           	                	;
 I-V-~@AV-218    	805         	0           	                	;
 I-V-~@AV-219    	794.7       	0           	                	;
 I-V-~@AV-22     	847.3       	0           	                	;
 I-V-~@AV-220    	797.6       	0           	                	;
 I-V-~@AV-221    	890.8       	0           	                	;
 I-V-~@AV-222    	848.1       	0           	                	;
 I-V-~@AV-223    	797.6       	0           	                	;
 I-V-~@AV-224    	796.2       	0           	                	;
 I-V-~@AV-225    	815.4       	0           	                	;
 I-V-~@AV-226    	840         	0           	                	;
 I-V-~@AV-227    	852.9       	0           	                	;
 I-V-~@AV-228    	842.6       	0           	                	;
 I-V-~@AV-229    	832.9       	0           	                	;
 I-V-~@AV-23     	838.8       	0           	                	;
 I-V-~@AV-230    	859.6       	0           	                	;
 I-V-~@AV-231    	860.3       	0           	                	;
 I-V-~@AV-232    	860.7       	0           	                	;
 I-V-~@AV-233    	806.8       	0           	                	;
 I-V-~@AV-234    	860.4       	0           	                	;
 I-V-~@AV-235    	860.3       	0           	                	;
 I-V-~@AV-236    	860.4       	0           	                	;
 I-V-~@AV-237    	860.4       	0           	                	;
 I-V-~@AV-238    	858.9       	0           	                	;
 I-V-~@AV-239    	859.4       	0           	                	;
 I-V-~@AV-24     	839.1       	0           	                	;
 I-V-~@AV-240    	859.4       	0           	                	;
 I-V-~@AV-241    	859.4       	0           	                	;
 I-V-~@AV-242    	855.6       	0           	                	;
 I-V-~@AV-243    	855.3       	0           	                	;
 I-V-~@AV-244    	829.8       	0           	                	;
 I-V-~@AV-245    	828.4       	0           	                	;
 I-V-~@AV-246    	844.9       	0           	                	;
 I-V-~@AV-247    	848.1       	0           	                	;
 I-V-~@AV-248    	835         	0           	                	;
 I-V-~@AV-249    	836.1       	0           	                	;
 I-V-~@AV-25     	837.6       	0           	                	;
 I-V-~@AV-250    	835         	0           	                	;
 I-V-~@AV-251    	837.9       	0           	                	;
 I-V-~@AV-252    	861.7       	0           	                	;
 I-V-~@AV-253    	873.7       	0           	                	;
 I-V-~@AV-254    	830.3       	0           	                	;
 I-V-~@AV-255    	873.1       	0           	                	;
 I-V-~@AV-256    	875.7       	0           	                	;
 I-V-~@AV-257    	872         	0           	                	;
 I-V-~@AV-258    	873.4       	0           	                	;
 I-V-~@AV-259    	871.7       	0           	                	;
 I-V-~@AV-26     	836.5       	0           	                	;
 I-V-~@AV-260    	881.7       	0           	                	;
 I-V-~@AV-261    	883.3       	0           	                	;
 I-V-~@AV-262    	884         	0           	                	;
 I-V-~@AV-263    	881.4       	0           	                	;
 I-V-~@AV-264    	847.3       	0           	                	;
 I-V-~@AV-265    	868.2       	0           	                	;
 I-V-~@AV-266    	868.9       	0           	                	;
 I-V-~@AV-267    	867.9       	0           	                	;
 I-V-~@AV-268    	844.5       	0           	                	;
 I-V-~@AV-269    	840.4       	0           	                	;
 I-V-~@AV-27     	927.6       	0           	                	;
 I-V-~@AV-270    	794.7       	0           	                	;
 I-V-~@AV-271    	797.8       	0           	                	;
 I-V-~@AV-272    	810.6       	0           	                	;
 I-V-~@AV-273    	819         	0           	                	;
 I-V-~@AV-274    	817.9       	0           	                	;
 I-V-~@AV-275    	849.3       	0           	                	;
 I-V-~@AV-276    	841.4       	0           	                	;
 I-V-~@AV-277    	852.2       	0           	                	;
 I-V-~@AV-278    	853.1       	0           	                	;
 I-V-~@AV-279    	850.3       	0           	                	;
 I-V-~@AV-28     	917.8       	0           	                	;
 I-V-~@AV-280    	787.9       	0           	                	;
 I-V-~@AV-281    	793.4       	0           	                	;
 I-V-~@AV-282    	794.3       	0           	                	;
 I-V-~@AV-283    	797.7       	0           	                	;
 I-V-~@AV-284    	811.4       	0           	                	;
 I-V-~@AV-285    	810.7       	0           	                	;
 I-V-~@AV-286    	849.5       	0           	                	;
 I-V-~@AV-287    	834         	0           	                	;
 I-V-~@AV-288    	834         	0           	                	;
 I-V-~@AV-289    	834.6       	0           	                	;
 I-V-~@AV-29     	912.7       	0           	                	;
 I-V-~@AV-290    	822.1       	0           	                	;
 I-V-~@AV-291    	805.5       	0           	                	;
 I-V-~@AV-292    	802.6       	0           	                	;
 I-V-~@AV-293    	809.9       	0           	                	;
 I-V-~@AV-294    	809.4       	0           	                	;
 I-V-~@AV-295    	807.9       	0           	                	;
 I-V-~@AV-296    	808.9       	0           	                	;
 I-V-~@AV-297    	849.3       	0           	                	;
 I-V-~@AV-298    	811.2       	0           	                	;
 I-V-~@AV-299    	811.4       	0           	                	;
 I-V-~@AV-3      	824.7       	0           	                	;
 I-V-~@AV-30     	904.4       	0           	                	;
 I-V-~@AV-300    	796.9       	0           	                	;
 I-V-~@AV-301    	796.7       	0           	                	;
 I-V-~@AV-302    	798.1       	0           	                	;
 I-V-~@AV-303    	796.3       	0           	                	;
 I-V-~@AV-304    	790.1       	0           	                	;
 I-V-~@AV-305    	789.5       	0           	                	;
 I-V-~@AV-306    	791.1       	0           	                	;
 I-V-~@AV-307    	792.6       	0           	                	;
 I-V-~@AV-308    	877         	0           	                	;
 I-V-~@AV-309    	792.8       	0           	                	;
 I-V-~@AV-31     	907.7       	0           	                	;
 I-V-~@AV-310    	808.4       	0           	                	;
 I-V-~@AV-311    	803.7       	0           	                	;
 I-V-~@AV-312    	806.5       	0           	                	;
 I-V-~@AV-313    	803.9       	0           	                	;
 I-V-~@AV-314    	797.9       	0           	                	;
 I-V-~@AV-315    	783.8       	0           	                	;
 I-V-~@AV-316    	816.9       	0           	                	;
 I-V-~@AV-317    	820.3       	0           	                	;
 I-V-~@AV-318    	819.9       	0           	                	;
 I-V-~@AV-319    	877         	0           	                	;
 I-V-~@AV-32     	903.5       	0           	                	;
 I-V-~@AV-320    	820.4       	0           	                	;
 I-V-~@AV-321    	808.6       	0           	                	;
 I-V-~@AV-322    	806.8       	0           	                	;
 I-V-~@AV-323    	792.4       	0           	                	;
 I-V-~@AV-324    	789.1       	0           	                	;
 I-V-~@AV-325    	817.7       	0           	                	;
 I-V-~@AV-326    	816.4       	0           	                	;
 I-V-~@AV-327    	818.4       	0           	                	;
 I-V-~@AV-328    	803.4       	0           	                	;
 I-V-~@AV-329    	834.1       	0           	                	;
 I-V-~@AV-33     	910.3       	0           	                	;
 I-V-~@AV-330    	895.4       	0           	                	;
 I-V-~@AV-331    	879         	0           	                	;
 I-V-~@AV-332    	834.9       	0           	                	;
 I-V-~@AV-333    	835.5       	0           	                	;
 I-V-~@AV-334    	836.2       	0           	                	;
 I-V-~@AV-335    	836.2       	0           	                	;
 I-V-~@AV-336    	835.5       	0           	                	;
 I-V-~@AV-337    	852.6       	0           	                	;
 I-V-~@AV-338    	790.3       	0           	                	;
 I-V-~@AV-339    	790         	0           	                	;
 I-V-~@AV-34     	909.5       	0           	                	;
 I-V-~@AV-340    	838.8       	0           	                	;
 I-V-~@AV-341    	846.9       	0           	                	;
 I-V-~@AV-342    	862.3       	0           	                	;
 I-V-~@AV-343    	842.2       	0           	                	;
 I-V-~@AV-344    	838.9       	0           	                	;
 I-V-~@AV-345    	801.4       	0           	                	;
 I-V-~@AV-346    	794.3       	0           	                	;
 I-V-~@AV-347    	806.5       	0           	                	;
 I-V-~@AV-348    	818.7       	0           	                	;
 I-V-~@AV-349    	864.9       	0           	                	;
 I-V-~@AV-35     	891.1       	0           	                	;
 I-V-~@AV-350    	863.8       	0           	                	;
 I-V-~@AV-351    	846.9       	0           	                	;
 I-V-~@AV-352    	850.2       	0           	                	;
 I-V-~@AV-353    	854.2       	0           	                	;
 I-V-~@AV-354    	872.4       	0           	                	;
 I-V-~@AV-355    	810         	0           	                	;
 I-V-~@AV-356    	809.8       	0           	                	;
 I-V-~@AV-357    	808.2       	0           	                	;
 I-V-~@AV-358    	816.5       	0           	                	;
 I-V-~@AV-359    	845.3       	0           	                	;
 I-V-~@AV-36     	921.4       	0           	                	;
 I-V-~@AV-360    	851.7       	0           	                	;
 I-V-~@AV-361    	858.6       	0           	                	;
 I-V-~@AV-362    	859.7       	0           	                	;
 I-V-~@AV-363    	848.2       	0           	                	;
 I-V-~@AV-364    	856.1       	0           	                	;
 I-V-~@AV-365    	849.6       	0           	                	;
 I-V-~@AV-366    	843.6       	0           	                	;
 I-V-~@AV-367    	848.2       	0           	                	;
 I-V-~@AV-368    	853.6       	0           	                	;
 I-V-~@AV-369    	853.3       	0           	                	;
 I-V-~@AV-37     	847         	0           	                	;
 I-V-~@AV-370    	810.2       	0           	                	;
 I-V-~@AV-371    	809.6       	0           	                	;
 I-V-~@AV-372    	809.2       	0           	                	;
 I-V-~@AV-373    	809.2       	0           	                	;
 I-V-~@AV-374    	806.9       	0           	                	;
 I-V-~@AV-375    	858.8       	0           	                	;
 I-V-~@AV-376    	805         	0           	                	;
 I-V-~@AV-377    	856.4       	0           	                	;
 I-V-~@AV-378    	865.7       	0           	                	;
 I-V-~@AV-379    	867.9       	0           	                	;
 I-V-~@AV-38     	913.5       	0           	                	;
 I-V-~@AV-380    	869.8       	0           	                	;
 I-V-~@AV-381    	853.9       	0           	                	;
 I-V-~@AV-382    	857.8       	0           	                	;
 I-V-~@AV-383    	859.7       	0           	                	;
 I-V-~@AV-384    	857.8       	0           	                	;
 I-V-~@AV-385    	821.8       	0           	                	;
 I-V-~@AV-386    	865.3       	0           	                	;
 I-V-~@AV-387    	810.9       	0           	                	;
 I-V-~@AV-388    	811.8       	0           	                	;
 I-V-~@AV-389    	843.6       	0           	                	;
 I-V-~@AV-39     	914.9       	0           	                	;
 I-V-~@AV-390    	845.2       	0           	                	;
 I-V-~@AV-391    	835.1       	0           	                	;
 I-V-~@AV-392    	837         	0           	                	;
 I-V-~@AV-393    	832.5       	0           	                	;
 I-V-~@AV-394    	870.3       	0           	                	;
 I-V-~@AV-395    	870.3       	0           	                	;
 I-V-~@AV-396    	869         	0           	                	;
 I-V-~@AV-397    	866.5       	0           	                	;
 I-V-~@AV-398    	867.5       	0           	                	;
 I-V-~@AV-399    	824         	0           	                	;
 I-V-~@AV-4      	874.6       	0           	                	;
 I-V-~@AV-40     	878.4       	0           	                	;
 I-V-~@AV-400    	822.5       	0           	                	;
 I-V-~@AV-401    	823.1       	0           	                	;
 I-V-~@AV-402    	814.6       	0           	                	;
 I-V-~@AV-403    	810.8       	0           	                	;
 I-V-~@AV-404    	803.2       	0           	                	;
 I-V-~@AV-405    	867.9       	0           	                	;
 I-V-~@AV-406    	867.9       	0           	                	;
 I-V-~@AV-407    	867.7       	0           	                	;
 I-V-~@AV-408    	869.4       	0           	                	;
 I-V-~@AV-409    	822.9       	0           	                	;
 I-V-~@AV-41     	878.5       	0           	                	;
 I-V-~@AV-410    	821.1       	0           	                	;
 I-V-~@AV-411    	870.4       	0           	                	;
 I-V-~@AV-412    	863.2       	0           	                	;
 I-V-~@AV-413    	831.7       	0           	                	;
 I-V-~@AV-414    	893.3       	0           	                	;
 I-V-~@AV-415    	833.1       	0           	                	;
 I-V-~@AV-416    	833.8       	0           	                	;
 I-V-~@AV-417    	833         	0           	                	;
 I-V-~@AV-418    	825.1       	0           	                	;
 I-V-~@AV-419    	829.5       	0           	                	;
 I-V-~@AV-42     	879.1       	0           	                	;
 I-V-~@AV-420    	847.9       	0           	                	;
 I-V-~@AV-421    	847.9       	0           	                	;
 I-V-~@AV-422    	858.6       	0           	                	;
 I-V-~@AV-423    	845.9       	0           	                	;
 I-V-~@AV-424    	851.9       	0           	                	;
 I-V-~@AV-425    	873.8       	0           	                	;
 I-V-~@AV-426    	863.2       	0           	                	;
 I-V-~@AV-427    	882.9       	0           	                	;
 I-V-~@AV-428    	883.4       	0           	                	;
 I-V-~@AV-429    	882.1       	0           	                	;
 I-V-~@AV-43     	875.9       	0           	                	;
 I-V-~@AV-430    	874.6       	0           	                	;
 I-V-~@AV-431    	876.5       	0           	                	;
 I-V-~@AV-432    	889.6       	0           	                	;
 I-V-~@AV-433    	894.8       	0           	                	;
 I-V-~@AV-434    	897.1       	0           	                	;
 I-V-~@AV-435    	870.2       	0           	                	;
 I-V-~@AV-436    	873.4       	0           	                	;
 I-V-~@AV-437    	859.8       	0           	                	;
 I-V-~@AV-438    	859.7       	0           	                	;
 I-V-~@AV-439    	862.4       	0           	                	;
 I-V-~@AV-44     	860.4       	0           	                	;
 I-V-~@AV-440    	861.6       	0           	                	;
 I-V-~@AV-441    	886.6       	0           	                	;
 I-V-~@AV-442    	886.6       	0           	                	;
 I-V-~@AV-443    	888.8       	0           	                	;
 I-V-~@AV-444    	846.7       	0           	                	;
 I-V-~@AV-445    	862         	0           	                	;
 I-V-~@AV-446    	859.7       	0           	                	;
 I-V-~@AV-447    	878         	0           	                	;
 I-V-~@AV-448    	902         	0           	                	;
 I-V-~@AV-449    	902.9       	0           	                	;
 I-V-~@AV-45     	860.7       	0           	                	;
 I-V-~@AV-450    	917         	0           	                	;
 I-V-~@AV-451    	884.3       	0           	                	;
 I-V-~@AV-452    	900.3       	0           	                	;
 I-V-~@AV-453    	899.7       	0           	                	;
 I-V-~@AV-454    	878.2       	0           	                	;
 I-V-~@AV-455    	878.8       	0           	                	;
 I-V-~@AV-456    	871.6       	0           	                	;
 I-V-~@AV-457    	872.8       	0           	                	;
 I-V-~@AV-458    	872.7       	0           	                	;
 I-V-~@AV-459    	859.1       	0           	                	;
 I-V-~@AV-46     	868.7       	0           	                	;
 I-V-~@AV-460    	844.9       	0           	                	;
 I-V-~@AV-461    	839.9       	0           	                	;
 I-V-~@AV-462    	830.1       	0           	                	;
 I-V-~@AV-463    	833.8       	0           	                	;
 I-V-~@AV-464    	834         	0           	                	;
 I-V-~@AV-465    	835.2       	0           	                	;
 I-V-~@AV-466    	842         	0           	                	;
 I-V-~@AV-467    	849.4       	0           	                	;
 I-V-~@AV-468    	864.5       	0           	                	;
 I-V-~@AV-47     	882.8       	0           	                	;
 I-V-~@AV-48     	844.1       	0           	                	;
 I-V-~@AV-49     	894.8       	0           	                	;
 I-V-~@AV-5      	861.7       	0           	                	;
 I-V-~@AV-50     	894.7       	0           	                	;
 I-V-~@AV-51     	901.8       	0           	                	;
 I-V-~@AV-52     	901.2       	0           	                	;
 I-V-~@AV-53     	901.8       	0           	                	;
 I-V-~@AV-54     	902.6       	0           	                	;
 I-V-~@AV-55     	901.8       	0           	                	;
 I-V-~@AV-56     	902.6       	0           	                	;
 I-V-~@AV-57     	898.6       	0           	                	;
 I-V-~@AV-58     	898.1       	0           	                	;
 I-V-~@AV-59     	845.4       	0           	                	;
 I-V-~@AV-6      	873.4       	0           	                	;
 I-V-~@AV-60     	898.1       	0           	                	;
 I-V-~@AV-61     	898         	0           	                	;
 I-V-~@AV-62     	897         	0           	                	;
 I-V-~@AV-63     	897.5       	0           	                	;
 I-V-~@AV-64     	885.8       	0           	                	;
 I-V-~@AV-65     	892.1       	0           	                	;
 I-V-~@AV-66     	893         	0           	                	;
 I-V-~@AV-67     	893.5       	0           	                	;
 I-V-~@AV-68     	892         	0           	                	;
 I-V-~@AV-69     	891.1       	0           	                	;
 I-V-~@AV-7      	887.4       	0           	                	;
 I-V-~@AV-70     	839.8       	0           	                	;
 I-V-~@AV-71     	892.3       	0           	                	;
 I-V-~@AV-72     	882.1       	0           	                	;
 I-V-~@AV-73     	892.4       	0           	                	;
 I-V-~@AV-74     	858.3       	0           	                	;
 I-V-~@AV-75     	864.1       	0           	                	;
 I-V-~@AV-76     	869.7       	0           	                	;
 I-V-~@AV-77     	864.4       	0           	                	;
 I-V-~@AV-78     	864.2       	0           	                	;
 I-V-~@AV-79     	860.1       	0           	                	;
 I-V-~@AV-8      	888.1       	0           	                	;
 I-V-~@AV-80     	858.2       	0           	                	;
 I-V-~@AV-81     	838.2       	0           	                	;
 I-V-~@AV-82     	897.6       	0           	                	;
 I-V-~@AV-83     	897.7       	0           	                	;
 I-V-~@AV-84     	897.1       	0           	                	;
 I-V-~@AV-85     	868         	0           	                	;
 I-V-~@AV-86     	868.6       	0           	                	;
 I-V-~@AV-87     	868.5       	0           	                	;
 I-V-~@AV-88     	872.8       	0           	                	;
 I-V-~@AV-89     	872.6       	0           	                	;
 I-V-~@AV-9      	888.5       	0           	                	;
 I-V-~@AV-90     	873.1       	0           	                	;
 I-V-~@AV-91     	861.1       	0           	                	;
 I-V-~@AV-92     	825.6       	0           	                	;
 I-V-~@AV-93     	860.5       	0           	                	;
 I-V-~@AV-94     	852.5       	0           	                	;
 I-V-~@AV-95     	852.5       	0           	                	;
 I-V-~@AV-96     	852.2       	0           	                	;
 I-V-~@AV-97     	868.3       	0           	                	;
 I-V-~@AV-98     	858.2       	0           	                	;
 I-V-~@AV-99     	868.6       	0           	                	;

[RESERVOIRS]
;ID              	Head        	Pattern         
 R1              	797         	                	;

[TANKS]
;ID              	Elevation   	InitLevel   	MinLevel    	MaxLevel    	Diameter    	MinVol      	VolCurve        	Overflow
 T-1             	898         	132.25      	111.5       	141.5       	103         	0           	                	;
 T-2             	885.5       	139.5       	115.5       	146         	103         	0           	                	;
 T-3             	892.6       	53.4        	4.9         	84.9        	32          	0           	                	;

[PIPES]
;ID              	Node1           	Node2           	Length      	Diameter    	Roughness   	MinorLoss   	Status
 D_P-~@Pump-1    	O-Pump-1        	O-P-~@Pump-1    	0.1         	10          	150         	0           	Open  	;
 D_P-~@Pump-2    	O-Pump-2        	O-P-~@Pump-2    	0.1         	10          	150         	0           	Open  	;
 D_P-~@Pump-3    	O-Pump-3        	O-P-~@Pump-3    	0.1         	10          	150         	0           	Open  	;
 D_V-~@AV-1      	O-AV-1          	O-V-~@AV-1      	0.1         	70.32317    	150         	0           	Open  	;
 D_V-~@AV-10     	O-AV-10         	O-V-~@AV-10     	0.1         	70.32317    	150         	0           	Open  	;
 D_V-~@AV-100    	O-AV-100        	O-V-~@AV-100    	0.1         	70.32317    	150         	0           	Open  	;
 D_V-~@AV-101    	O-AV-101        	O-V-~@AV-101    	0.1         	70.32317    	150         	0           	Open  	;
 D_V-~@AV-102    	O-AV-102        	O-V-~@AV-102    	0.1         	70.32317    	150         	0           	Open  	;
 D_V-~@AV-103    	O-AV-103        	O-V-~@AV-103    	0.1         	70.32317    	150         	0           	Open  	;
 D_V-~@AV-104    	O-AV-104        	O-V-~@AV-104    	0.1         	70.32317    	150         	0           	Open  	;
 D_V-~@AV-105    	O-AV-105        	O-V-~@AV-105    	0.1         	70.32317    	150         	0           	Open  	;
 D_V-~@AV-106    	O-AV-106        	O-V-~@AV-106    	0.1         	70.32317    	150         	0           	Open  	;
 D_V-~@AV-107    	O-AV-107        	O-V-~@AV-107    	0.1         	70.32317    	150         	0           	Open  	;
 D_V-~@AV-108    	O-AV-108        	O-V-~@AV-108    	0.1         	70.32317    	150         	0           	Open  	;
 D_V-~@AV-109    	O-AV-109        	O-V-~@AV-109    	0.1         	70.32317    	150         	0           	Open  	;
 D_V-~@AV-11     	O-AV-11         	O-V-~@AV-11     	0.1         	70.32317    	150         	0           	Open  	;
 D_V-~@AV-110    	O-AV-110        	O-V-~@AV-110    	0.1         	70.32317    	150         	0           	Open  	;
 D_V-~@AV-111    	O-AV-111        	O-V-~@AV-111    	0.1         	70.32317    	150         	0           	Open  	;
 D_V-~@AV-112    	O-AV-112        	O-V-~@AV-112    	0.1         	70.32317    	150         	0           	Open  	;
 D_V-~@AV-113    	O-AV-113        	O-V-~@AV-113    	0.1         	70.32317    	150         	0           	Open  	;
 D_V-~@AV-114    	O-AV-114        	O-V-~@AV-114    	0.1         	70.32317    	150         	0           	Open  	;
 D_V-~@AV-115    	O-AV-115        	O-V-~@AV-115    	0.1         	70.32317    	150         	0           	Open  	;
 D_V-~@AV-116    	O-AV-116        	O-V-~@AV-116    	0.1         	70.32317    	150         	0           	Open  	;
 D_V-~@AV-117    	O-AV-117        	O-V-~@AV-117    	0.1         	70.32317    	150         	0           	Open  	;
 D_V-~@AV-118    	O-AV-118        	O-V-~@AV-118    	0.1         	70.32317    	150         	0           	Open  	;
 D_V-~@AV-119    	O-AV-119        	O-V-~@AV-119    	0.1         	70.32317    	150         	0           	Open  	;
 D_V-~@AV-12     	O-AV-12         	O-V-~@AV-12     	0.1         	70.32317    	150         	0           	Open  	;
 D_V-~@AV-120    	O-AV-120        	O-V-~@AV-120    	0.1         	70.32317    	150         	0           	Open  	;
 D_V-~@AV-121    	O-AV-121        	O-V-~@AV-121    	0.1         	70.32317    	150         	0           	Open  	;
 D_V-~@AV-122    	O-AV-122        	O-V-~@AV-122    	0.1         	70.32317    	150         	0           	Open  	;
 D_V-~@AV-123    	O-AV-123        	O-V-~@AV-123    	0.1         	70.32317    	150         	0           	Open  	;
 D_V-~@AV-124    	O-AV-124        	O-V-~@AV-124    	0.1         	70.32317    	150         	0           	Open  	;
 D_V-~@AV-125    	O-AV-125        	O-V-~@AV-125    	0.1         	70.32317    	150         	0           	Open  	;
 D_V-~@AV-126    	O-AV-126        	O-V-~@AV-126    	0.1         	70.32317    	150         	0           	Open  	;
 D_V-~@AV-127    	O-AV-127        	O-V-~@AV-127    	0.1         	70.32317    	150         	0           	Open  	;
 D_V-~@AV-128    	O-AV-128        	O-V-~@AV-128    	0.1         	70.32317    	150         	0           	Open  	;
 D_V-~@AV-129    	O-AV-129        	O-V-~@AV-129    	0.1         	70.32317    	150         	0           	Open  	;
 D_V-~@AV-13     	O-AV-13         	O-V-~@AV-13     	0.1         	70.32317    	150         	0           	Open  	;
 D_V-~@AV-130    	O-AV-130        	O-V-~@AV-130    	0.1         	70.32317    	150         	0           	Open  	;
 D_V-~@AV-131    	O-AV-131        	O-V-~@AV-131    	0.1         	70.32317    	150         	0           	Open  	;
 D_V-~@AV-132    	O-AV-132        	O-V-~@AV-132    	0.1         	70.32317    	150         	0           	Open  	;
 D_V-~@AV-133    	O-AV-133        	O-V-~@AV-133    	0.1         	70.32317    	150         	0           	Open  	;
 D_V-~@AV-134    	O-AV-134        	O-V-~@AV-134    	0.1         	70.32317    	150         	0           	Open  	;
 D_V-~@AV-135    	O-AV-135        	O-V-~@AV-135    	0.1         	70.32317    	150         	0           	Open  	;
 D_V-~@AV-136    	O-AV-136        	O-V-~@AV-136    	0.1         	70.32317    	150         	0           	Open  	;
 D_V-~@AV-137    	O-AV-137        	O-V-~@AV-137    	0.1         	70.32317    	150         	0           	Open  	;
 D_V-~@AV-138    	O-AV-138        	O-V-~@AV-138    	0.1         	70.32317    	150         	0           	Open  	;
 D_V-~@AV-139    	O-AV-139        	O-V-~@AV-139    	0.1         	70.32317    	150         	0           	Open  	;
 D_V-~@AV-14     	O-AV-14         	O-V-~@AV-14     	0.1         	70.32317    	150         	0           	Open  	;
 D_V-~@AV-140    	O-AV-140        	O-V-~@AV-140    	0.1         	70.32317    	150         	0           	Open  	;
 D_V-~@AV-141    	O-AV-141        	O-V-~@AV-141    	0.1         	70.32317    	150         	0           	Open  	;
 D_V-~@AV-142    	O-AV-142        	O-V-~@AV-142    	0.1         	70.32317    	150         	0           	Open  	;
 D_V-~@AV-143    	O-AV-143        	O-V-~@AV-143    	0.1         	70.32317    	150         	0           	Open  	;
 D_V-~@AV-144    	O-AV-144        	O-V-~@AV-144    	0.1         	70.32317    	150         	0           	Open  	;
 D_V-~@AV-145    	O-AV-145        	O-V-~@AV-145    	0.1         	70.32317    	150         	0           	Open  	;
 D_V-~@AV-146    	O-AV-146        	O-V-~@AV-146    	0.1         	70.32317    	150         	0           	Open  	;
 D_V-~@AV-147    	O-AV-147        	O-V-~@AV-147    	0.1         	70.32317    	150         	0           	Open  	;
 D_V-~@AV-148    	O-AV-148        	O-V-~@AV-148    	0.1         	70.32317    	150         	0           	Open  	;
 D_V-~@AV-149    	O-AV-149        	O-V-~@AV-149    	0.1         	70.32317    	150         	0           	Open  	;
 D_V-~@AV-15     	O-AV-15         	O-V-~@AV-15     	0.1         	70.32317    	150         	0           	Open  	;
 D_V-~@AV-150    	O-AV-150        	O-V-~@AV-150    	0.1         	70.32317    	150         	0           	Open  	;
 D_V-~@AV-151    	O-AV-151        	O-V-~@AV-151    	0.1         	70.32317    	150         	0           	Open  	;
 D_V-~@AV-152    	O-AV-152        	O-V-~@AV-152    	0.1         	70.32317    	150         	0           	Open  	;
 D_V-~@AV-153    	O-AV-153        	O-V-~@AV-153    	0.1         	70.32317    	150         	0           	Open  	;
 D_V-~@AV-154    	O-AV-154        	O-V-~@AV-154    	0.1         	70.32317    	150         	0           	Open  	;
 D_V-~@AV-155    	O-AV-155        	O-V-~@AV-155    	0.1         	70.32317    	150         	0           	Open  	;
 D_V-~@AV-156    	O-AV-156        	O-V-~@AV-156    	0.1         	70.32317    	150         	0           	Open  	;
 D_V-~@AV-157    	O-AV-157        	O-V-~@AV-157    	0.1         	70.32317    	150         	0           	Open  	;
 D_V-~@AV-158    	O-AV-158        	O-V-~@AV-158    	0.1         	70.32317    	150         	0           	Open  	;
 D_V-~@AV-159    	O-AV-159        	O-V-~@AV-159    	0.1         	70.32317    	150         	0           	Open  	;
 D_V-~@AV-16     	O-AV-16         	O-V-~@AV-16     	0.1         	70.32317    	150         	0           	Open  	;
 D_V-~@AV-160    	O-AV-160        	O-V-~@AV-160    	0.1         	70.32317    	150         	0           	Open  	;
 D_V-~@AV-161    	O-AV-161        	O-V-~@AV-161    	0.1         	70.32317    	150         	0           	Open  	;
 D_V-~@AV-162    	O-AV-162        	O-V-~@AV-162    	0.1         	70.32317    	150         	0           	Open  	;
 D_V-~@AV-163    	O-AV-163        	O-V-~@AV-163    	0.1         	70.32317    	150         	0           	Open  	;
 D_V-~@AV-164    	O-AV-164        	O-V-~@AV-164    	0.1         	70.32317    	150         	0           	Open  	;
 D_V-~@AV-165    	O-AV-165        	O-V-~@AV-165    	0.1         	70.32317    	150         	0           	Open  	;
 D_V-~@AV-166    	O-AV-166        	O-V-~@AV-166    	0.1         	70.32317    	150         	0           	Open  	;
 D_V-~@AV-167    	O-AV-167        	O-V-~@AV-167    	0.1         	70.32317    	150         	0           	Open  	;
 D_V-~@AV-168    	O-AV-168        	O-V-~@AV-168    	0.1         	70.32317    	150         	0           	Open  	;
 D_V-~@AV-169    	O-AV-169        	O-V-~@AV-169    	0.1         	70.32317    	150         	0           	Open  	;
 D_V-~@AV-17     	O-AV-17         	O-V-~@AV-17     	0.1         	70.32317    	150         	0           	Open  	;
 D_V-~@AV-170    	O-AV-170        	O-V-~@AV-170    	0.1         	70.32317    	150         	0           	Open  	;
 D_V-~@AV-171    	O-AV-171        	O-V-~@AV-171    	0.1         	70.32317    	150         	0           	Open  	;
 D_V-~@AV-172    	O-AV-172        	O-V-~@AV-172    	0.1         	70.32317    	150         	0           	Open  	;
 D_V-~@AV-173    	O-AV-173        	O-V-~@AV-173    	0.1         	70.32317    	150         	0           	Open  	;
 D_V-~@AV-174    	O-AV-174        	O-V-~@AV-174    	0.1         	70.32317    	150         	0           	Open  	;
 D_V-~@AV-175    	O-AV-175        	O-V-~@AV-175    	0.1         	70.32317    	150         	0           	Open  	;
 D_V-~@AV-176    	O-AV-176        	O-V-~@AV-176    	0.1         	70.32317    	150         	0           	Open  	;
 D_V-~@AV-177    	O-AV-177        	O-V-~@AV-177    	0.1         	70.32317    	150         	0           	Open  	;
 D_V-~@AV-178    	O-AV-178        	O-V-~@AV-178    	0.1         	70.32317    	150         	0           	Open  	;
 D_V-~@AV-179    	O-AV-179        	O-V-~@AV-179    	0.1         	70.32317    	150         	0           	Open  	;
 D_V-~@AV-18     	O-AV-18         	O-V-~@AV-18     	0.1         	70.32317    	150         	0           	Open  	;
 D_V-~@AV-180    	O-AV-180        	O-V-~@AV-180    	0.1         	70.32317    	150         	0           	Open  	;
 D_V-~@AV-181    	O-AV-181        	O-V-~@AV-181    	0.1         	70.32317    	150         	0           	Open  	;
 D_V-~@AV-182    	O-AV-182        	O-V-~@AV-182    	0.1         	70.32317    	150         	0           	Open  	;
 D_V-~@AV-183    	O-AV-183        	O-V-~@AV-183    	0.1         	70.32317    	150         	0           	Open  	;
 D_V-~@AV-184    	O-AV-184        	O-V-~@AV-184    	0.1         	70.32317    	150         	0           	Open  	;
 D_V-~@AV-185    	O-AV-185        	O-V-~@AV-185    	0.1         	70.32317    	150         	0           	Open  	;
 D_V-~@AV-186    	O-AV-186        	O-V-~@AV-186    	0.1         	70.32317    	150         	0           	Open  	;
 D_V-~@AV-187    	O-AV-187        	O-V-~@AV-187    	0.1         	70.32317    	150         	0           	Open  	;
 D_V-~@AV-188    	O-AV-188        	O-V-~@AV-188    	0.1         	70.32317    	150         	0           	Open  	;
 D_V-~@AV-189    	O-AV-189        	O-V-~@AV-189    	0.1         	70.32317    	150         	0           	Open  	;
 D_V-~@AV-19     	O-AV-19         	O-V-~@AV-19     	0.1         	70.32317    	150         	0           	Open  	;
 D_V-~@AV-190    	O-AV-190        	O-V-~@AV-190    	0.1         	70.32317    	150         	0           	Open  	;
 D_V-~@AV-191    	O-AV-191        	O-V-~@AV-191    	0.1         	70.32317    	150         	0           	Open  	;
 D_V-~@AV-192    	O-AV-192        	O-V-~@AV-192    	0.1         	70.32317    	150         	0           	Open  	;
 D_V-~@AV-193    	O-AV-193        	O-V-~@AV-193    	0.1         	70.32317    	150         	0           	Open  	;
 D_V-~@AV-194    	O-AV-194        	O-V-~@AV-194    	0.1         	70.32317    	150         	0           	Open  	;
 D_V-~@AV-195    	O-AV-195        	O-V-~@AV-195    	0.1         	70.32317    	150         	0           	Open  	;
 D_V-~@AV-196    	O-AV-196        	O-V-~@AV-196    	0.1         	70.32317    	150         	0           	Open  	;
 D_V-~@AV-197    	O-AV-197        	O-V-~@AV-197    	0.1         	70.32317    	150         	0           	Open  	;
 D_V-~@AV-198    	O-AV-198        	O-V-~@AV-198    	0.1         	70.32317    	150         	0           	Open  	;
 D_V-~@AV-199    	O-AV-199        	O-V-~@AV-199    	0.1         	70.32317    	150         	0           	Open  	;
 D_V-~@AV-2      	O-AV-2          	O-V-~@AV-2      	0.1         	70.32317    	150         	0           	Open  	;
 D_V-~@AV-20     	O-AV-20         	O-V-~@AV-20     	0.1         	70.32317    	150         	0           	Open  	;
 D_V-~@AV-200    	O-AV-200        	O-V-~@AV-200    	0.1         	70.32317    	150         	0           	Open  	;
 D_V-~@AV-201    	O-AV-201        	O-V-~@AV-201    	0.1         	70.32317    	150         	0           	Open  	;
 D_V-~@AV-202    	O-AV-202        	O-V-~@AV-202    	0.1         	70.32317    	150         	0           	Open  	;
 D_V-~@AV-204    	O-AV-204        	O-V-~@AV-204    	0.1         	70.32317    	150         	0           	Open  	;
 D_V-~@AV-205    	O-AV-205        	O-V-~@AV-205    	0.1         	70.32317    	150         	0           	Open  	;
 D_V-~@AV-206    	O-AV-206        	O-V-~@AV-206    	0.1         	70.32317    	150         	0           	Open  	;
 D_V-~@AV-207    	O-AV-207        	O-V-~@AV-207    	0.1         	70.32317    	150         	0           	Open  	;
 D_V-~@AV-208    	O-AV-208        	O-V-~@AV-208    	0.1         	70.32317    	150         	0           	Open  	;
 D_V-~@AV-209    	O-AV-209        	O-V-~@AV-209    	0.1         	70.32317    	150         	0           	Open  	;
 D_V-~@AV-21     	O-AV-21         	O-V-~@AV-21     	0.1         	70.32317    	150         	0           	Open  	;
 D_V-~@AV-210    	O-AV-210        	O-V-~@AV-210    	0.1         	70.32317    	150         	0           	Open  	;
 D_V-~@AV-211    	O-AV-211        	O-V-~@AV-211    	0.1         	70.32317    	150         	0           	Open  	;
 D_V-~@AV-212    	O-AV-212        	O-V-~@AV-212    	0.1         	70.32317    	150         	0           	Open  	;
 D_V-~@AV-213    	O-AV-213        	O-V-~@AV-213    	0.1         	70.32317    	150         	0           	Open  	;
 D_V-~@AV-214    	O-AV-214        	O-V-~@AV-214    	0.1         	70.32317    	150         	0           	Open  	;
 D_V-~@AV-215    	O-AV-215        	O-V-~@AV-215    	0.1         	70.32317    	150         	0           	Open  	;
 D_V-~@AV-216    	O-AV-216        	O-V-~@AV-216    	0.1         	70.32317    	150         	0           	Open  	;
 D_V-~@AV-217    	O-AV-217        	O-V-~@AV-217    	0.1         	70.32317    	150         	0           	Open  	;
 D_V-~@AV-218    	O-AV-218        	O-V-~@AV-218    	0.1         	70.32317    	150         	0           	Open  	;
 D_V-~@AV-219    	O-AV-219        	O-V-~@AV-219    	0.1         	70.32317    	150         	0           	Open  	;
 D_V-~@AV-22     	O-AV-22         	O-V-~@AV-22     	0.1         	70.32317    	150         	0           	Open  	;
 D_V-~@AV-220    	O-AV-220        	O-V-~@AV-220    	0.1         	70.32317    	150         	0           	Open  	;
 D_V-~@AV-221    	O-AV-221        	O-V-~@AV-221    	0.1         	70.32317    	150         	0           	Open  	;
 D_V-~@AV-222    	O-AV-222        	O-V-~@AV-222    	0.1         	70.32317    	150         	0           	Open  	;
 D_V-~@AV-223    	O-AV-223        	O-V-~@AV-223    	0.1         	70.32317    	150         	0           	Open  	;
 D_V-~@AV-224    	O-AV-224        	O-V-~@AV-224    	0.1         	70.32317    	150         	0           	Open  	;
 D_V-~@AV-225    	O-AV-225        	O-V-~@AV-225    	0.1         	70.32317    	150         	0           	Open  	;
 D_V-~@AV-226    	O-AV-226        	O-V-~@AV-226    	0.1         	70.32317    	150         	0           	Open  	;
 D_V-~@AV-227    	O-AV-227        	O-V-~@AV-227    	0.1         	70.32317    	150         	0           	Open  	;
 D_V-~@AV-228    	O-AV-228        	O-V-~@AV-228    	0.1         	70.32317    	150         	0           	Open  	;
 D_V-~@AV-229    	O-AV-229        	O-V-~@AV-229    	0.1         	70.32317    	150         	0           	Open  	;
 D_V-~@AV-23     	O-AV-23         	O-V-~@AV-23     	0.1         	70.32317    	150         	0           	Open  	;
 D_V-~@AV-230    	O-AV-230        	O-V-~@AV-230    	0.1         	70.32317    	150         	0           	Open  	;
 D_V-~@AV-231    	O-AV-231        	O-V-~@AV-231    	0.1         	70.32317    	150         	0           	Open  	;
 D_V-~@AV-232    	O-AV-232        	O-V-~@AV-232    	0.1         	70.32317    	150         	0           	Open  	;
 D_V-~@AV-233    	O-AV-233        	O-V-~@AV-233    	0.1         	70.32317    	150         	0           	Open  	;
 D_V-~@AV-234    	O-AV-234        	O-V-~@AV-234    	0.1         	70.32317    	150         	0           	Open  	;
 D_V-~@AV-235    	O-AV-235        	O-V-~@AV-235    	0.1         	70.32317    	150         	0           	Open  	;
 D_V-~@AV-236    	O-AV-236        	O-V-~@AV-236    	0.1         	70.32317    	150         	0           	Open  	;
 D_V-~@AV-237    	O-AV-237        	O-V-~@AV-237    	0.1         	70.32317    	150         	0           	Open  	;
 D_V-~@AV-238    	O-AV-238        	O-V-~@AV-238    	0.1         	70.32317    	150         	0           	Open  	;
 D_V-~@AV-239    	O-AV-239        	O-V-~@AV-239    	0.1         	70.32317    	150         	0           	Open  	;
 D_V-~@AV-24     	O-AV-24         	O-V-~@AV-24     	0.1         	70.32317    	150         	0           	Open  	;
 D_V-~@AV-240    	O-AV-240        	O-V-~@AV-240    	0.1         	70.32317    	150         	0           	Open  	;
 D_V-~@AV-241    	O-AV-241        	O-V-~@AV-241    	0.1         	70.32317    	150         	0           	Open  	;
 D_V-~@AV-242    	O-AV-242        	O-V-~@AV-242    	0.1         	70.32317    	150         	0           	Open  	;
 D_V-~@AV-243    	O-AV-243        	O-V-~@AV-243    	0.1         	70.32317    	150         	0           	Open  	;
 D_V-~@AV-244    	O-AV-244        	O-V-~@AV-244    	0.1         	70.32317    	150         	0           	Open  	;
 D_V-~@AV-245    	O-AV-245        	O-V-~@AV-245    	0.1         	70.32317    	150         	0           	Open  	;
 D_V-~@AV-246    	O-AV-246        	O-V-~@AV-246    	0.1         	70.32317    	150         	0           	Open  	;
 D_V-~@AV-247    	O-AV-247        	O-V-~@AV-247    	0.1         	70.32317    	150         	0           	Open  	;
 D_V-~@AV-248    	O-AV-248        	O-V-~@AV-248    	0.1         	70.32317    	150         	0           	Open  	;
 D_V-~@AV-249    	O-AV-249        	O-V-~@AV-249    	0.1         	70.32317    	150         	0           	Open  	;
 D_V-~@AV-25     	O-AV-25         	O-V-~@AV-25     	0.1         	70.32317    	150         	0           	Open  	;
 D_V-~@AV-250    	O-AV-250        	O-V-~@AV-250    	0.1         	70.32317    	150         	0           	Open  	;
 D_V-~@AV-251    	O-AV-251        	O-V-~@AV-251    	0.1         	70.32317    	150         	0           	Open  	;
 D_V-~@AV-252    	O-AV-252        	O-V-~@AV-252    	0.1         	70.32317    	150         	0           	Open  	;
 D_V-~@AV-253    	O-AV-253        	O-V-~@AV-253    	0.1         	70.32317    	150         	0           	Open  	;
 D_V-~@AV-254    	O-AV-254        	O-V-~@AV-254    	0.1         	70.32317    	150         	0           	Open  	;
 D_V-~@AV-255    	O-AV-255        	O-V-~@AV-255    	0.1         	70.32317    	150         	0           	Open  	;
 D_V-~@AV-256    	O-AV-256        	O-V-~@AV-256    	0.1         	70.32317    	150         	0           	Open  	;
 D_V-~@AV-257    	O-AV-257        	O-V-~@AV-257    	0.1         	70.32317    	150         	0           	Open  	;
 D_V-~@AV-258    	O-AV-258        	O-V-~@AV-258    	0.1         	70.32317    	150         	0           	Open  	;
 D_V-~@AV-259    	O-AV-259        	O-V-~@AV-259    	0.1         	70.32317    	150         	0           	Open  	;
 D_V-~@AV-26     	O-AV-26         	O-V-~@AV-26     	0.1         	70.32317    	150         	0           	Open  	;
 D_V-~@AV-260    	O-AV-260        	O-V-~@AV-260    	0.1         	70.32317    	150         	0           	Open  	;
 D_V-~@AV-261    	O-AV-261        	O-V-~@AV-261    	0.1         	70.32317    	150         	0           	Open  	;
 D_V-~@AV-262    	O-AV-262        	O-V-~@AV-262    	0.1         	70.32317    	150         	0           	Open  	;
 D_V-~@AV-263    	O-AV-263        	O-V-~@AV-263    	0.1         	70.32317    	150         	0           	Open  	;
 D_V-~@AV-264    	O-AV-264        	O-V-~@AV-264    	0.1         	70.32317    	150         	0           	Open  	;
 D_V-~@AV-265    	O-AV-265        	O-V-~@AV-265    	0.1         	70.32317    	150         	0           	Open  	;
 D_V-~@AV-266    	O-AV-266        	O-V-~@AV-266    	0.1         	70.32317    	150         	0           	Open  	;
 D_V-~@AV-267    	O-AV-267        	O-V-~@AV-267    	0.1         	70.32317    	150         	0           	Open  	;
 D_V-~@AV-268    	O-AV-268        	O-V-~@AV-268    	0.1         	70.32317    	150         	0           	Open  	;
 D_V-~@AV-269    	O-AV-269        	O-V-~@AV-269    	0.1         	70.32317    	150         	0           	Open  	;
 D_V-~@AV-27     	O-AV-27         	O-V-~@AV-27     	0.1         	70.32317    	150         	0           	Open  	;
 D_V-~@AV-270    	O-AV-270        	O-V-~@AV-270    	0.1         	70.32317    	150         	0           	Open  	;
 D_V-~@AV-271    	O-AV-271        	O-V-~@AV-271    	0.1         	70.32317    	150         	0           	Open  	;
 D_V-~@AV-272    	O-AV-272        	O-V-~@AV-272    	0.1         	70.32317    	150         	0           	Open  	;
 D_V-~@AV-273    	O-AV-273        	O-V-~@AV-273    	0.1         	70.32317    	150         	0           	Open  	;
 D_V-~@AV-274    	O-AV-274        	O-V-~@AV-274    	0.1         	70.32317    	150         	0           	Open  	;
 D_V-~@AV-275    	O-AV-275        	O-V-~@AV-275    	0.1         	70.32317    	150         	0           	Open  	;
 D_V-~@AV-276    	O-AV-276        	O-V-~@AV-276    	0.1         	70.32317    	150         	0           	Open  	;
 D_V-~@AV-277    	O-AV-277        	O-V-~@AV-277    	0.1         	70.32317    	150         	0           	Open  	;
 D_V-~@AV-278    	O-AV-278        	O-V-~@AV-278    	0.1         	70.32317    	150         	0           	Open  	;
 D_V-~@AV-279    	O-AV-279        	O-V-~@AV-279    	0.1         	70.32317    	150         	0           	Open  	;
 D_V-~@AV-28     	O-AV-28         	O-V-~@AV-28     	0.1         	70.32317    	150         	0           	Open  	;
 D_V-~@AV-280    	O-AV-280        	O-V-~@AV-280    	0.1         	70.32317    	150         	0           	Open  	;
 D_V-~@AV-281    	O-AV-281        	O-V-~@AV-281    	0.1         	70.32317    	150         	0           	Open  	;
 D_V-~@AV-282    	O-AV-282        	O-V-~@AV-282    	0.1         	70.32317    	150         	0           	Open  	;
 D_V-~@AV-283    	O-AV-283        	O-V-~@AV-283    	0.1         	70.32317    	150         	0           	Open  	;
 D_V-~@AV-284    	O-AV-284        	O-V-~@AV-284    	0.1         	70.32317    	150         	0           	Open  	;
 D_V-~@AV-285    	O-AV-285        	O-V-~@AV-285    	0.1         	70.32317    	150         	0           	Open  	;
 D_V-~@AV-286    	O-AV-286        	O-V-~@AV-286    	0.1         	70.32317    	150         	0           	Open  	;
 D_V-~@AV-287    	O-AV-287        	O-V-~@AV-287    	0.1         	70.32317    	150         	0           	Open  	;
 D_V-~@AV-288    	O-AV-288        	O-V-~@AV-288    	0.1         	70.32317    	150         	0           	Open  	;
 D_V-~@AV-289    	O-AV-289        	O-V-~@AV-289    	0.1         	70.32317    	150         	0           	Open  	;
 D_V-~@AV-29     	O-AV-29         	O-V-~@AV-29     	0.1         	70.32317    	150         	0           	Open  	;
 D_V-~@AV-290    	O-AV-290        	O-V-~@AV-290    	0.1         	70.32317    	150         	0           	Open  	;
 D_V-~@AV-291    	O-AV-291        	O-V-~@AV-291    	0.1         	70.32317    	150         	0           	Open  	;
 D_V-~@AV-292    	O-AV-292        	O-V-~@AV-292    	0.1         	70.32317    	150         	0           	Open  	;
 D_V-~@AV-293    	O-AV-293        	O-V-~@AV-293    	0.1         	70.32317    	150         	0           	Open  	;
 D_V-~@AV-294    	O-AV-294        	O-V-~@AV-294    	0.1         	70.32317    	150         	0           	Open  	;
 D_V-~@AV-295    	O-AV-295        	O-V-~@AV-295    	0.1         	70.32317    	150         	0           	Open  	;
 D_V-~@AV-296    	O-AV-296        	O-V-~@AV-296    	0.1         	70.32317    	150         	0           	Open  	;
 D_V-~@AV-297    	O-AV-297        	O-V-~@AV-297    	0.1         	70.32317    	150         	0           	Open  	;
 D_V-~@AV-298    	O-AV-298        	O-V-~@AV-298    	0.1         	70.32317    	150         	0           	Open  	;
 D_V-~@AV-299    	O-AV-299        	O-V-~@AV-299    	0.1         	70.32317    	150         	0           	Open  	;
 D_V-~@AV-3      	O-AV-3          	O-V-~@AV-3      	0.1         	70.32317    	150         	0           	Open  	;
 D_V-~@AV-30     	O-AV-30         	O-V-~@AV-30     	0.1         	70.32317    	150         	0           	Open  	;
 D_V-~@AV-300    	O-AV-300        	O-V-~@AV-300    	0.1         	70.32317    	150         	0           	Open  	;
 D_V-~@AV-301    	O-AV-301        	O-V-~@AV-301    	0.1         	70.32317    	150         	0           	Open  	;
 D_V-~@AV-302    	O-AV-302        	O-V-~@AV-302    	0.1         	70.32317    	150         	0           	Open  	;
 D_V-~@AV-303    	O-AV-303        	O-V-~@AV-303    	0.1         	70.32317    	150         	0           	Open  	;
 D_V-~@AV-304    	O-AV-304        	O-V-~@AV-304    	0.1         	70.32317    	150         	0           	Open  	;
 D_V-~@AV-305    	O-AV-305        	O-V-~@AV-305    	0.1         	70.32317    	150         	0           	Open  	;
 D_V-~@AV-306    	O-AV-306        	O-V-~@AV-306    	0.1         	70.32317    	150         	0           	Open  	;
 D_V-~@AV-307    	O-AV-307        	O-V-~@AV-307    	0.1         	70.32317    	150         	0           	Open  	;
 D_V-~@AV-308    	O-AV-308        	O-V-~@AV-308    	0.1         	70.32317    	150         	0           	Open  	;
 D_V-~@AV-309    	O-AV-309        	O-V-~@AV-309    	0.1         	70.32317    	150         	0           	Open  	;
 D_V-~@AV-31     	O-AV-31         	O-V-~@AV-31     	0.1         	70.32317    	150         	0           	Open  	;
 D_V-~@AV-310    	O-AV-310        	O-V-~@AV-310    	0.1         	70.32317    	150         	0           	Open  	;
 D_V-~@AV-311    	O-AV-311        	O-V-~@AV-311    	0.1         	70.32317    	150         	0           	Open  	;
 D_V-~@AV-312    	O-AV-312        	O-V-~@AV-312    	0.1         	70.32317    	150         	0           	Open  	;
 D_V-~@AV-313    	O-AV-313        	O-V-~@AV-313    	0.1         	70.32317    	150         	0           	Open  	;
 D_V-~@AV-314    	O-AV-314        	O-V-~@AV-314    	0.1         	70.32317    	150         	0           	Open  	;
 D_V-~@AV-315    	O-AV-315        	O-V-~@AV-315    	0.1         	70.32317    	150         	0           	Open  	;
 D_V-~@AV-316    	O-AV-316        	O-V-~@AV-316    	0.1         	70.32317    	150         	0           	Open  	;
 D_V-~@AV-317    	O-AV-317        	O-V-~@AV-317    	0.1         	70.32317    	150         	0           	Open  	;
 D_V-~@AV-318    	O-AV-318        	O-V-~@AV-318    	0.1         	70.32317    	150         	0           	Open  	;
 D_V-~@AV-319    	O-AV-319        	O-V-~@AV-319    	0.1         	70.32317    	150         	0           	Open  	;
 D_V-~@AV-32     	O-AV-32         	O-V-~@AV-32     	0.1         	70.32317    	150         	0           	Open  	;
 D_V-~@AV-320    	O-AV-320        	O-V-~@AV-320    	0.1         	70.32317    	150         	0           	Open  	;
 D_V-~@AV-321    	O-AV-321        	O-V-~@AV-321    	0.1         	70.32317    	150         	0           	Open  	;
 D_V-~@AV-322    	O-AV-322        	O-V-~@AV-322    	0.1         	70.32317    	150         	0           	Open  	;
 D_V-~@AV-323    	O-AV-323        	O-V-~@AV-323    	0.1         	70.32317    	150         	0           	Open  	;
 D_V-~@AV-324    	O-AV-324        	O-V-~@AV-324    	0.1         	70.32317    	150         	0           	Open  	;
 D_V-~@AV-325    	O-AV-325        	O-V-~@AV-325    	0.1         	70.32317    	150         	0           	Open  	;
 D_V-~@AV-326    	O-AV-326        	O-V-~@AV-326    	0.1         	70.32317    	150         	0           	Open  	;
 D_V-~@AV-327    	O-AV-327        	O-V-~@AV-327    	0.1         	70.32317    	150         	0           	Open  	;
 D_V-~@AV-328    	O-AV-328        	O-V-~@AV-328    	0.1         	70.32317    	150         	0           	Open  	;
 D_V-~@AV-329    	O-AV-329        	O-V-~@AV-329    	0.1         	70.32317    	150         	0           	Open  	;
 D_V-~@AV-33     	O-AV-33         	O-V-~@AV-33     	0.1         	70.32317    	150         	0           	Open  	;
 D_V-~@AV-330    	O-AV-330        	O-V-~@AV-330    	0.1         	70.32317    	150         	0           	Open  	;
 D_V-~@AV-331    	O-AV-331        	O-V-~@AV-331    	0.1         	70.32317    	150         	0           	Open  	;
 D_V-~@AV-332    	O-AV-332        	O-V-~@AV-332    	0.1         	70.32317    	150         	0           	Open  	;
 D_V-~@AV-333    	O-AV-333        	O-V-~@AV-333    	0.1         	70.32317    	150         	0           	Open  	;
 D_V-~@AV-334    	O-AV-334        	O-V-~@AV-334    	0.1         	70.32317    	150         	0           	Open  	;
 D_V-~@AV-335    	O-AV-335        	O-V-~@AV-335    	0.1         	70.32317    	150         	0           	Open  	;
 D_V-~@AV-336    	O-AV-336        	O-V-~@AV-336    	0.1         	70.32317    	150         	0           	Open  	;
 D_V-~@AV-337    	O-AV-337        	O-V-~@AV-337    	0.1         	70.32317    	150         	0           	Open  	;
 D_V-~@AV-338    	O-AV-338        	O-V-~@AV-338    	0.1         	70.32317    	150         	0           	Open  	;
 D_V-~@AV-339    	O-AV-339        	O-V-~@AV-339    	0.1         	70.32317    	150         	0           	Open  	;
 D_V-~@AV-34     	O-AV-34         	O-V-~@AV-34     	0.1         	70.32317    	150         	0           	Open  	;
 D_V-~@AV-340    	O-AV-340        	O-V-~@AV-340    	0.1         	70.32317    	150         	0           	Open  	;
 D_V-~@AV-341    	O-AV-341        	O-V-~@AV-341    	0.1         	70.32317    	150         	0           	Open  	;
 D_V-~@AV-342    	O-AV-342        	O-V-~@AV-342    	0.1         	70.32317    	150         	0           	Open  	;
 D_V-~@AV-343    	O-AV-343        	O-V-~@AV-343    	0.1         	70.32317    	150         	0           	Open  	;
 D_V-~@AV-344    	O-AV-344        	O-V-~@AV-344    	0.1         	70.32317    	150         	0           	Open  	;
 D_V-~@AV-345    	O-AV-345        	O-V-~@AV-345    	0.1         	70.32317    	150         	0           	Open  	;
 D_V-~@AV-346    	O-AV-346        	O-V-~@AV-346    	0.1         	70.32317    	150         	0           	Open  	;
 D_V-~@AV-347    	O-AV-347        	O-V-~@AV-347    	0.1         	70.32317    	150         	0           	Open  	;
 D_V-~@AV-348    	O-AV-348        	O-V-~@AV-348    	0.1         	70.32317    	150         	0           	Open  	;
 D_V-~@AV-349    	O-AV-349        	O-V-~@AV-349    	0.1         	70.32317    	150         	0           	Open  	;
 D_V-~@AV-35     	O-AV-35         	O-V-~@AV-35     	0.1         	70.32317    	150         	0           	Open  	;
 D_V-~@AV-350    	O-AV-350        	O-V-~@AV-350    	0.1         	70.32317    	150         	0           	Open  	;
 D_V-~@AV-351    	O-AV-351        	O-V-~@AV-351    	0.1         	70.32317    	150         	0           	Open  	;
 D_V-~@AV-352    	O-AV-352        	O-V-~@AV-352    	0.1         	70.32317    	150         	0           	Open  	;
 D_V-~@AV-353    	O-AV-353        	O-V-~@AV-353    	0.1         	70.32317    	150         	0           	Open  	;
 D_V-~@AV-354    	O-AV-354        	O-V-~@AV-354    	0.1         	70.32317    	150         	0           	Open  	;
 D_V-~@AV-355    	O-AV-355        	O-V-~@AV-355    	0.1         	70.32317    	150         	0           	Open  	;
 D_V-~@AV-356    	O-AV-356        	O-V-~@AV-356    	0.1         	70.32317    	150         	0           	Open  	;
 D_V-~@AV-357    	O-AV-357        	O-V-~@AV-357    	0.1         	70.32317    	150         	0           	Open  	;
 D_V-~@AV-358    	O-AV-358        	O-V-~@AV-358    	0.1         	70.32317    	150         	0           	Open  	;
 D_V-~@AV-359    	O-AV-359        	O-V-~@AV-359    	0.1         	70.32317    	150         	0           	Open  	;
 D_V-~@AV-36     	O-AV-36         	O-V-~@AV-36     	0.1         	70.32317    	150         	0           	Open  	;
 D_V-~@AV-360    	O-AV-360        	O-V-~@AV-360    	0.1         	70.32317    	150         	0           	Open  	;
 D_V-~@AV-361    	O-AV-361        	O-V-~@AV-361    	0.1         	70.32317    	150         	0           	Open  	;
 D_V-~@AV-362    	O-AV-362        	O-V-~@AV-362    	0.1         	70.32317    	150         	0           	Open  	;
 D_V-~@AV-363    	O-AV-363        	O-V-~@AV-363    	0.1         	70.32317    	150         	0           	Open  	;
 D_V-~@AV-364    	O-AV-364        	O-V-~@AV-364    	0.1         	70.32317    	150         	0           	Open  	;
 D_V-~@AV-365    	O-AV-365        	O-V-~@AV-365    	0.1         	70.32317    	150         	0           	Open  	;
 D_V-~@AV-366    	O-AV-366        	O-V-~@AV-366    	0.1         	70.32317    	150         	0           	Open  	;
 D_V-~@AV-367    	O-AV-367        	O-V-~@AV-367    	0.1         	70.32317    	150         	0           	Open  	;
 D_V-~@AV-368    	O-AV-368        	O-V-~@AV-368    	0.1         	70.32317    	150         	0           	Open  	;
 D_V-~@AV-369    	O-AV-369        	O-V-~@AV-369    	0.1         	70.32317    	150         	0           	Open  	;
 D_V-~@AV-37     	O-AV-37         	O-V-~@AV-37     	0.1         	70.32317    	150         	0           	Open  	;
 D_V-~@AV-370    	O-AV-370        	O-V-~@AV-370    	0.1         	70.32317    	150         	0           	Open  	;
 D_V-~@AV-371    	O-AV-371        	O-V-~@AV-371    	0.1         	70.32317    	150         	0           	Open  	;
 D_V-~@AV-372    	O-AV-372        	O-V-~@AV-372    	0.1         	70.32317    	150         	0           	Open  	;
 D_V-~@AV-373    	O-AV-373        	O-V-~@AV-373    	0.1         	70.32317    	150         	0           	Open  	;
 D_V-~@AV-374    	O-AV-374        	O-V-~@AV-374    	0.1         	70.32317    	150         	0           	Open  	;
 D_V-~@AV-375    	O-AV-375        	O-V-~@AV-375    	0.1         	70.32317    	150         	0           	Open  	;
 D_V-~@AV-376    	O-AV-376        	O-V-~@AV-376    	0.1         	70.32317    	150         	0           	Open  	;
 D_V-~@AV-377    	O-AV-377        	O-V-~@AV-377    	0.1         	70.32317    	150         	0           	Open  	;
 D_V-~@AV-378    	O-AV-378        	O-V-~@AV-378    	0.1         	70.32317    	150         	0           	Open  	;
 D_V-~@AV-379    	O-AV-379        	O-V-~@AV-379    	0.1         	70.32317    	150         	0           	Open  	;
 D_V-~@AV-38     	O-AV-38         	O-V-~@AV-38     	0.1         	70.32317    	150         	0           	Open  	;
 D_V-~@AV-380    	O-AV-380        	O-V-~@AV-380    	0.1         	70.32317    	150         	0           	Open  	;
 D_V-~@AV-381    	O-AV-381        	O-V-~@AV-381    	0.1         	70.32317    	150         	0           	Open  	;
 D_V-~@AV-382    	O-AV-382        	O-V-~@AV-382    	0.1         	70.32317    	150         	0           	Open  	;
 D_V-~@AV-383    	O-AV-383        	O-V-~@AV-383    	0.1         	70.32317    	150         	0           	Open  	;
 D_V-~@AV-384    	O-AV-384        	O-V-~@AV-384    	0.1         	70.32317    	150         	0           	Open  	;
 D_V-~@AV-385    	O-AV-385        	O-V-~@AV-385    	0.1         	70.32317    	150         	0           	Open  	;
 D_V-~@AV-386    	O-AV-386        	O-V-~@AV-386    	0.1         	70.32317    	150         	0           	Open  	;
 D_V-~@AV-387    	O-AV-387        	O-V-~@AV-387    	0.1         	70.32317    	150         	0           	Open  	;
 D_V-~@AV-388    	O-AV-388        	O-V-~@AV-388    	0.1         	70.32317    	150         	0           	Open  	;
 D_V-~@AV-389    	O-AV-389        	O-V-~@AV-389    	0.1         	70.32317    	150         	0           	Open  	;
 D_V-~@AV-39     	O-AV-39         	O-V-~@AV-39     	0.1         	70.32317    	150         	0           	Open  	;
 D_V-~@AV-390    	O-AV-390        	O-V-~@AV-390    	0.1         	70.32317    	150         	0           	Open  	;
 D_V-~@AV-391    	O-AV-391        	O-V-~@AV-391    	0.1         	70.32317    	150         	0           	Open  	;
 D_V-~@AV-392    	O-AV-392        	O-V-~@AV-392    	0.1         	70.32317    	150         	0           	Open  	;
 D_V-~@AV-393    	O-AV-393        	O-V-~@AV-393    	0.1         	70.32317    	150         	0           	Open  	;
 D_V-~@AV-394    	O-AV-394        	O-V-~@AV-394    	0.1         	70.32317    	150         	0           	Open  	;
 D_V-~@AV-395    	O-AV-395        	O-V-~@AV-395    	0.1         	70.32317    	150         	0           	Open  	;
 D_V-~@AV-396    	O-AV-396        	O-V-~@AV-396    	0.1         	70.32317    	150         	0           	Open  	;
 D_V-~@AV-397    	O-AV-397        	O-V-~@AV-397    	0.1         	70.32317    	150         	0           	Open  	;
 D_V-~@AV-398    	O-AV-398        	O-V-~@AV-398    	0.1         	70.32317    	150         	0           	Open  	;
 D_V-~@AV-399    	O-AV-399        	O-V-~@AV-399    	0.1         	70.32317    	150         	0           	Open  	;
 D_V-~@AV-4      	O-AV-4          	O-V-~@AV-4      	0.1         	70.32317    	150         	0           	Open  	;
 D_V-~@AV-40     	O-AV-40         	O-V-~@AV-40     	0.1         	70.32317    	150         	0           	Open  	;
 D_V-~@AV-400    	O-AV-400        	O-V-~@AV-400    	0.1         	70.32317    	150         	0           	Open  	;
 D_V-~@AV-401    	O-AV-401        	O-V-~@AV-401    	0.1         	70.32317    	150         	0           	Open  	;
 D_V-~@AV-402    	O-AV-402        	O-V-~@AV-402    	0.1         	70.32317    	150         	0           	Open  	;
 D_V-~@AV-403    	O-AV-403        	O-V-~@AV-403    	0.1         	70.32317    	150         	0           	Open  	;
 D_V-~@AV-404    	O-AV-404        	O-V-~@AV-404    	0.1         	70.32317    	150         	0           	Open  	;
 D_V-~@AV-405    	O-AV-405        	O-V-~@AV-405    	0.1         	70.32317    	150         	0           	Open  	;
 D_V-~@AV-406    	O-AV-406        	O-V-~@AV-406    	0.1         	70.32317    	150         	0           	Open  	;
 D_V-~@AV-407    	O-AV-407        	O-V-~@AV-407    	0.1         	70.32317    	150         	0           	Open  	;
 D_V-~@AV-408    	O-AV-408        	O-V-~@AV-408    	0.1         	70.32317    	150         	0           	Open  	;
 D_V-~@AV-409    	O-AV-409        	O-V-~@AV-409    	0.1         	70.32317    	150         	0           	Open  	;
 D_V-~@AV-41     	O-AV-41         	O-V-~@AV-41     	0.1         	70.32317    	150         	0           	Open  	;
 D_V-~@AV-410    	O-AV-410        	O-V-~@AV-410    	0.1         	70.32317    	150         	0           	Open  	;
 D_V-~@AV-411    	O-AV-411        	O-V-~@AV-411    	0.1         	70.32317    	150         	0           	Open  	;
 D_V-~@AV-412    	O-AV-412        	O-V-~@AV-412    	0.1         	70.32317    	150         	0           	Open  	;
 D_V-~@AV-413    	O-AV-413        	O-V-~@AV-413    	0.1         	70.32317    	150         	0           	Open  	;
 D_V-~@AV-414    	O-AV-414        	O-V-~@AV-414    	0.1         	70.32317    	150         	0           	Open  	;
 D_V-~@AV-415    	O-AV-415        	O-V-~@AV-415    	0.1         	70.32317    	150         	0           	Open  	;
 D_V-~@AV-416    	O-AV-416        	O-V-~@AV-416    	0.1         	70.32317    	150         	0           	Open  	;
 D_V-~@AV-417    	O-AV-417        	O-V-~@AV-417    	0.1         	70.32317    	150         	0           	Open  	;
 D_V-~@AV-418    	O-AV-418        	O-V-~@AV-418    	0.1         	70.32317    	150         	0           	Open  	;
 D_V-~@AV-419    	O-AV-419        	O-V-~@AV-419    	0.1         	70.32317    	150         	0           	Open  	;
 D_V-~@AV-42     	O-AV-42         	O-V-~@AV-42     	0.1         	70.32317    	150         	0           	Open  	;
 D_V-~@AV-420    	O-AV-420        	O-V-~@AV-420    	0.1         	70.32317    	150         	0           	Open  	;
 D_V-~@AV-421    	O-AV-421        	O-V-~@AV-421    	0.1         	70.32317    	150         	0           	Open  	;
 D_V-~@AV-422    	O-AV-422        	O-V-~@AV-422    	0.1         	70.32317    	150         	0           	Open  	;
 D_V-~@AV-423    	O-AV-423        	O-V-~@AV-423    	0.1         	70.32317    	150         	0           	Open  	;
 D_V-~@AV-424    	O-AV-424        	O-V-~@AV-424    	0.1         	70.32317    	150         	0           	Open  	;
 D_V-~@AV-425    	O-AV-425        	O-V-~@AV-425    	0.1         	70.32317    	150         	0           	Open  	;
 D_V-~@AV-426    	O-AV-426        	O-V-~@AV-426    	0.1         	70.32317    	150         	0           	Open  	;
 D_V-~@AV-427    	O-AV-427        	O-V-~@AV-427    	0.1         	70.32317    	150         	0           	Open  	;
 D_V-~@AV-428    	O-AV-428        	O-V-~@AV-428    	0.1         	70.32317    	150         	0           	Open  	;
 D_V-~@AV-429    	O-AV-429        	O-V-~@AV-429    	0.1         	70.32317    	150         	0           	Open  	;
 D_V-~@AV-43     	O-AV-43         	O-V-~@AV-43     	0.1         	70.32317    	150         	0           	Open  	;
 D_V-~@AV-430    	O-AV-430        	O-V-~@AV-430    	0.1         	70.32317    	150         	0           	Open  	;
 D_V-~@AV-431    	O-AV-431        	O-V-~@AV-431    	0.1         	70.32317    	150         	0           	Open  	;
 D_V-~@AV-432    	O-AV-432        	O-V-~@AV-432    	0.1         	70.32317    	150         	0           	Open  	;
 D_V-~@AV-433    	O-AV-433        	O-V-~@AV-433    	0.1         	70.32317    	150         	0           	Open  	;
 D_V-~@AV-434    	O-AV-434        	O-V-~@AV-434    	0.1         	70.32317    	150         	0           	Open  	;
 D_V-~@AV-435    	O-AV-435        	O-V-~@AV-435    	0.1         	70.32317    	150         	0           	Open  	;
 D_V-~@AV-436    	O-AV-436        	O-V-~@AV-436    	0.1         	70.32317    	150         	0           	Open  	;
 D_V-~@AV-437    	O-AV-437        	O-V-~@AV-437    	0.1         	70.32317    	150         	0           	Open  	;
 D_V-~@AV-438    	O-AV-438        	O-V-~@AV-438    	0.1         	70.32317    	150         	0           	Open  	;
 D_V-~@AV-439    	O-AV-439        	O-V-~@AV-439    	0.1         	70.32317    	150         	0           	Open  	;
 D_V-~@AV-44     	O-AV-44         	O-V-~@AV-44     	0.1         	70.32317    	150         	0           	Open  	;
 D_V-~@AV-440    	O-AV-440        	O-V-~@AV-440    	0.1         	70.32317    	150         	0           	Open  	;
 D_V-~@AV-441    	O-AV-441        	O-V-~@AV-441    	0.1         	70.32317    	150         	0           	Open  	;
 D_V-~@AV-442    	O-AV-442        	O-V-~@AV-442    	0.1         	70.32317    	150         	0           	Open  	;
 D_V-~@AV-443    	O-AV-443        	O-V-~@AV-443    	0.1         	70.32317    	150         	0           	Open  	;
 D_V-~@AV-444    	O-AV-444        	O-V-~@AV-444    	0.1         	70.32317    	150         	0           	Open  	;
 D_V-~@AV-445    	O-AV-445        	O-V-~@AV-445    	0.1         	70.32317    	150         	0           	Open  	;
 D_V-~@AV-446    	O-AV-446        	O-V-~@AV-446    	0.1         	70.32317    	150         	0           	Open  	;
 D_V-~@AV-447    	O-AV-447        	O-V-~@AV-447    	0.1         	70.32317    	150         	0           	Open  	;
 D_V-~@AV-448    	O-AV-448        	O-V-~@AV-448    	0.1         	70.32317    	150         	0           	Open  	;
 D_V-~@AV-449    	O-AV-449        	O-V-~@AV-449    	0.1         	70.32317    	150         	0           	Open  	;
 D_V-~@AV-45     	O-AV-45         	O-V-~@AV-45     	0.1         	70.32317    	150         	0           	Open  	;
 D_V-~@AV-450    	O-AV-450        	O-V-~@AV-450    	0.1         	70.32317    	150         	0           	Open  	;
 D_V-~@AV-451    	O-AV-451        	O-V-~@AV-451    	0.1         	70.32317    	150         	0           	Open  	;
 D_V-~@AV-452    	O-AV-452        	O-V-~@AV-452    	0.1         	70.32317    	150         	0           	Open  	;
 D_V-~@AV-453    	O-AV-453        	O-V-~@AV-453    	0.1         	70.32317    	150         	0           	Open  	;
 D_V-~@AV-454    	O-AV-454        	O-V-~@AV-454    	0.1         	70.32317    	150         	0           	Open  	;
 D_V-~@AV-455    	O-AV-455        	O-V-~@AV-455    	0.1         	70.32317    	150         	0           	Open  	;
 D_V-~@AV-456    	O-AV-456        	O-V-~@AV-456    	0.1         	70.32317    	150         	0           	Open  	;
 D_V-~@AV-457    	O-AV-457        	O-V-~@AV-457    	0.1         	70.32317    	150         	0           	Open  	;
 D_V-~@AV-458    	O-AV-458        	O-V-~@AV-458    	0.1         	70.32317    	150         	0           	Open  	;
 D_V-~@AV-459    	O-AV-459        	O-V-~@AV-459    	0.1         	70.32317    	150         	0           	Open  	;
 D_V-~@AV-46     	O-AV-46         	O-V-~@AV-46     	0.1         	70.32317    	150         	0           	Open  	;
 D_V-~@AV-460    	O-AV-460        	O-V-~@AV-460    	0.1         	70.32317    	150         	0           	Open  	;
 D_V-~@AV-461    	O-AV-461        	O-V-~@AV-461    	0.1         	70.32317    	150         	0           	Open  	;
 D_V-~@AV-462    	O-AV-462        	O-V-~@AV-462    	0.1         	70.32317    	150         	0           	Open  	;
 D_V-~@AV-463    	O-AV-463        	O-V-~@AV-463    	0.1         	70.32317    	150         	0           	Open  	;
 D_V-~@AV-464    	O-AV-464        	O-V-~@AV-464    	0.1         	70.32317    	150         	0           	Open  	;
 D_V-~@AV-465    	O-AV-465        	O-V-~@AV-465    	0.1         	70.32317    	150         	0           	Open  	;
 D_V-~@AV-466    	O-AV-466        	O-V-~@AV-466    	0.1         	70.32317    	150         	0           	Open  	;
 D_V-~@AV-467    	O-AV-467        	O-V-~@AV-467    	0.1         	70.32317    	150         	0           	Open  	;
 D_V-~@AV-468    	O-AV-468        	O-V-~@AV-468    	0.1         	70.32317    	150         	0           	Open  	;
 D_V-~@AV-47     	O-AV-47         	O-V-~@AV-47     	0.1         	70.32317    	150         	0           	Open  	;
 D_V-~@AV-48     	O-AV-48         	O-V-~@AV-48     	0.1         	70.32317    	150         	0           	Open  	;
 D_V-~@AV-49     	O-AV-49         	O-V-~@AV-49     	0.1         	70.32317    	150         	0           	Open  	;
 D_V-~@AV-5      	O-AV-5          	O-V-~@AV-5      	0.1         	70.32317    	150         	0           	Open  	;
 D_V-~@AV-50     	O-AV-50         	O-V-~@AV-50     	0.1         	70.32317    	150         	0           	Open  	;
 D_V-~@AV-51     	O-AV-51         	O-V-~@AV-51     	0.1         	70.32317    	150         	0           	Open  	;
 D_V-~@AV-52     	O-AV-52         	O-V-~@AV-52     	0.1         	70.32317    	150         	0           	Open  	;
 D_V-~@AV-53     	O-AV-53         	O-V-~@AV-53     	0.1         	70.32317    	150         	0           	Open  	;
 D_V-~@AV-54     	O-AV-54         	O-V-~@AV-54     	0.1         	70.32317    	150         	0           	Open  	;
 D_V-~@AV-55     	O-AV-55         	O-V-~@AV-55     	0.1         	70.32317    	150         	0           	Open  	;
 D_V-~@AV-56     	O-AV-56         	O-V-~@AV-56     	0.1         	70.32317    	150         	0           	Open  	;
 D_V-~@AV-57     	O-AV-57         	O-V-~@AV-57     	0.1         	70.32317    	150         	0           	Open  	;
 D_V-~@AV-58     	O-AV-58         	O-V-~@AV-58     	0.1         	70.32317    	150         	0           	Open  	;
 D_V-~@AV-59     	O-AV-59         	O-V-~@AV-59     	0.1         	70.32317    	150         	0           	Open  	;
 D_V-~@AV-6      	O-AV-6          	O-V-~@AV-6      	0.1         	70.32317    	150         	0           	Open  	;
 D_V-~@AV-60     	O-AV-60         	O-V-~@AV-60     	0.1         	70.32317    	150         	0           	Open  	;
 D_V-~@AV-61     	O-AV-61         	O-V-~@AV-61     	0.1         	70.32317    	150         	0           	Open  	;
 D_V-~@AV-62     	O-AV-62         	O-V-~@AV-62     	0.1         	70.32317    	150         	0           	Open  	;
 D_V-~@AV-63     	O-AV-63         	O-V-~@AV-63     	0.1         	70.32317    	150         	0           	Open  	;
 D_V-~@AV-64     	O-AV-64         	O-V-~@AV-64     	0.1         	70.32317    	150         	0           	Open  	;
 D_V-~@AV-65     	O-AV-65         	O-V-~@AV-65     	0.1         	70.32317    	150         	0           	Open  	;
 D_V-~@AV-66     	O-AV-66         	O-V-~@AV-66     	0.1         	70.32317    	150         	0           	Open  	;
 D_V-~@AV-67     	O-AV-67         	O-V-~@AV-67     	0.1         	70.32317    	150         	0           	Open  	;
 D_V-~@AV-68     	O-AV-68         	O-V-~@AV-68     	0.1         	70.32317    	150         	0           	Open  	;
 D_V-~@AV-69     	O-AV-69         	O-V-~@AV-69     	0.1         	70.32317    	150         	0           	Open  	;
 D_V-~@AV-7      	O-AV-7          	O-V-~@AV-7      	0.1         	70.32317    	150         	0           	Open  	;
 D_V-~@AV-70     	O-AV-70         	O-V-~@AV-70     	0.1         	70.32317    	150         	0           	Open  	;
 D_V-~@AV-71     	O-AV-71         	O-V-~@AV-71     	0.1         	70.32317    	150         	0           	Open  	;
 D_V-~@AV-72     	O-AV-72         	O-V-~@AV-72     	0.1         	70.32317    	150         	0           	Open  	;
 D_V-~@AV-73     	O-AV-73         	O-V-~@AV-73     	0.1         	70.32317    	150         	0           	Open  	;
 D_V-~@AV-74     	O-AV-74         	O-V-~@AV-74     	0.1         	70.32317    	150         	0           	Open  	;
 D_V-~@AV-75     	O-AV-75         	O-V-~@AV-75     	0.1         	70.32317    	150         	0           	Open  	;
 D_V-~@AV-76     	O-AV-76         	O-V-~@AV-76     	0.1         	70.32317    	150         	0           	Open  	;
 D_V-~@AV-77     	O-AV-77         	O-V-~@AV-77     	0.1         	70.32317    	150         	0           	Open  	;
 D_V-~@AV-78     	O-AV-78         	O-V-~@AV-78     	0.1         	70.32317    	150         	0           	Open  	;
 D_V-~@AV-79     	O-AV-79         	O-V-~@AV-79     	0.1         	70.32317    	150         	0           	Open  	;
 D_V-~@AV-8      	O-AV-8          	O-V-~@AV-8      	0.1         	70.32317    	150         	0           	Open  	;
 D_V-~@AV-80     	O-AV-80         	O-V-~@AV-80     	0.1         	70.32317    	150         	0           	Open  	;
 D_V-~@AV-81     	O-AV-81         	O-V-~@AV-81     	0.1         	70.32317    	150         	0           	Open  	;
 D_V-~@AV-82     	O-AV-82         	O-V-~@AV-82     	0.1         	70.32317    	150         	0           	Open  	;
 D_V-~@AV-83     	O-AV-83         	O-V-~@AV-83     	0.1         	70.32317    	150         	0           	Open  	;
 D_V-~@AV-84     	O-AV-84         	O-V-~@AV-84     	0.1         	70.32317    	150         	0           	Open  	;
 D_V-~@AV-85     	O-AV-85         	O-V-~@AV-85     	0.1         	70.32317    	150         	0           	Open  	;
 D_V-~@AV-86     	O-AV-86         	O-V-~@AV-86     	0.1         	70.32317    	150         	0           	Open  	;
 D_V-~@AV-87     	O-AV-87         	O-V-~@AV-87     	0.1         	70.32317    	150         	0           	Open  	;
 D_V-~@AV-88     	O-AV-88         	O-V-~@AV-88     	0.1         	70.32317    	150         	0           	Open  	;
 D_V-~@AV-89     	O-AV-89         	O-V-~@AV-89     	0.1         	70.32317    	150         	0           	Open  	;
 D_V-~@AV-9      	O-AV-9          	O-V-~@AV-9      	0.1         	70.32317    	150         	0           	Open  	;
 D_V-~@AV-90     	O-AV-90         	O-V-~@AV-90     	0.1         	70.32317    	150         	0           	Open  	;
 D_V-~@AV-91     	O-AV-91         	O-V-~@AV-91     	0.1         	70.32317    	150         	0           	Open  	;
 D_V-~@AV-92     	O-AV-92         	O-V-~@AV-92     	0.1         	70.32317    	150         	0           	Open  	;
 D_V-~@AV-93     	O-AV-93         	O-V-~@AV-93     	0.1         	70.32317    	150         	0           	Open  	;
 D_V-~@AV-94     	O-AV-94         	O-V-~@AV-94     	0.1         	70.32317    	150         	0           	Open  	;
 D_V-~@AV-95     	O-AV-95         	O-V-~@AV-95     	0.1         	70.32317    	150         	0           	Open  	;
 D_V-~@AV-96     	O-AV-96         	O-V-~@AV-96     	0.1         	70.32317    	150         	0           	Open  	;
 D_V-~@AV-97     	O-AV-97         	O-V-~@AV-97     	0.1         	70.32317    	150         	0           	Open  	;
 D_V-~@AV-98     	O-AV-98         	O-V-~@AV-98     	0.1         	70.32317    	150         	0           	Open  	;
 D_V-~@AV-99     	O-AV-99         	O-V-~@AV-99     	0.1         	70.32317    	150         	0           	Open  	;
 P-~@Pump-1      	I-Pump-1        	I-P-~@Pump-1    	0.1         	10          	150         	0           	Open  	;
 P-~@Pump-2      	I-Pump-2        	I-P-~@Pump-2    	0.1         	10          	150         	0           	Open  	;
 P-~@Pump-3      	I-Pump-3        	I-P-~@Pump-3    	0.1         	10          	150         	0           	Open  	;
 P-1             	J-1             	J-2             	3900.658    	12          	130         	0           	Open  	;
 P-10            	J-17            	J-18            	2309.86     	8           	140         	0           	Open  	;
 P-100           	J-164           	J-128           	3121.75     	16          	130         	0           	Open  	;
 P-1000          	O-AV-90         	J-581           	206.27      	6           	40          	0           	Open  	;
 P-1001          	O-AV-91         	J-466           	476.76      	6           	40          	0           	Open  	;
 P-1002          	O-AV-92         	J-515           	421.368     	8           	130         	0           	Open  	;
 P-1003          	O-AV-93         	J-350           	631.848     	6           	40          	0           	Open  	;
 P-1004          	O-AV-94         	I-AV-245        	808.76      	8           	120         	0           	Open  	;
 P-1005          	O-AV-95         	J-495           	214.08      	6           	40          	0           	Open  	;
 P-1006          	O-AV-96         	J-474           	204.41      	4           	40          	0           	Open  	;
 P-1007          	O-AV-97         	J-25            	689.33      	6           	40          	0           	Open  	;
 P-1008          	O-AV-98         	I-AV-85         	679.429     	6           	40          	0           	Open  	;
 P-1009          	O-AV-99         	I-AV-97         	201.5       	6           	40          	0           	Open  	;
 P-101           	J-166           	I-AV-399        	185.8       	12          	130         	0           	Open  	;
 P-1010          	O-AV-100        	J-210           	220.88      	6           	40          	0           	Open  	;
 P-1011          	O-AV-101        	I-AV-86         	604.218     	6           	40          	0           	Open  	;
 P-1012          	O-AV-102        	I-AV-81         	611.348     	10          	120         	0           	Open  	;
 P-1013          	O-AV-103        	I-AV-100        	758.65      	6           	40          	0           	Open  	;
 P-1014          	O-AV-104        	J-402           	224.389     	6           	40          	0           	Open  	;
 P-1015          	O-AV-105        	I-AV-106        	403.959     	4           	100         	0           	Open  	;
 P-1016          	O-AV-106        	J-402           	478.058     	4           	100         	0           	Open  	;
 P-1017          	O-AV-107        	J-355           	560.89      	6           	120         	0           	Open  	;
 P-1018          	O-AV-108        	J-382           	153.649     	6           	120         	0           	Open  	;
 P-1019          	O-AV-109        	J-119           	616.979     	6           	120         	0           	Open  	;
 P-102           	J-168           	J-169           	234.339     	1           	130         	0           	Open  	;
 P-1020          	O-AV-110        	J-409           	634.28      	6           	40          	0           	Open  	;
 P-1021          	O-AV-111        	J-26            	451.29      	6           	40          	0           	Open  	;
 P-1022          	O-AV-112        	J-377           	217.61      	6           	40          	0           	Open  	;
 P-1023          	O-AV-113        	J-683           	170.88      	6           	140         	0           	Open  	;
 P-1024          	O-AV-114        	J-361           	377.028     	12          	130         	0           	Open  	;
 P-1025          	O-AV-115        	J-368           	401.308     	6           	120         	0           	Open  	;
 P-1026          	O-AV-116        	J-181           	730.32      	6           	40          	0           	Open  	;
 P-1027          	O-AV-117        	J-197           	583.239     	6           	40          	0           	Open  	;
 P-1028          	O-AV-118        	I-AV-243        	952.26      	6           	40          	0           	Open  	;
 P-1029          	O-AV-119        	J-637           	179.49      	12          	130         	0           	Open  	;
 P-103           	J-170           	J-171           	505.398     	6           	120         	0           	Open  	;
 P-1030          	O-AV-120        	J-637           	215.699     	16          	130         	0           	Open  	;
 P-1031          	O-AV-121        	I-AV-201        	818.609     	6           	40          	0           	Open  	;
 P-1032          	O-AV-122        	I-AV-123        	414.2       	6           	40          	0           	Open  	;
 P-1033          	O-AV-123        	I-AV-125        	293.64      	6           	40          	0           	Open  	;
 P-1034          	O-AV-124        	J-217           	123.87      	6           	130         	0           	Open  	;
 P-1035          	O-AV-125        	J-413           	182.089     	6           	40          	0           	Open  	;
 P-1036          	O-AV-126        	J-119           	331.64      	6           	40          	0           	Open  	;
 P-1037          	O-AV-127        	J-118           	193.059     	4           	40          	0           	Open  	;
 P-1038          	O-AV-128        	I-AV-129        	386.41      	6           	40          	0           	Open  	;
 P-1039          	O-AV-129        	J-119           	264.94      	6           	40          	0           	Open  	;
 P-104           	J-172           	I-AV-44         	430.26      	6           	140         	0           	Open  	;
 P-1040          	O-AV-130        	J-536           	205.55      	2           	100         	0           	Open  	;
 P-1041          	O-AV-131        	J-301           	961.44      	12          	120         	0           	Open  	;
 P-1042          	O-AV-132        	J-661           	321.51      	6           	130         	0           	Open  	;
 P-1043          	O-AV-133        	J-300           	201         	12          	120         	0           	Open  	;
 P-1044          	O-AV-134        	J-301           	190.009     	8           	120         	0           	Open  	;
 P-1045          	O-AV-135        	I-AV-168        	894.28      	6           	130         	0           	Open  	;
 P-1046          	O-AV-136        	J-275           	162.02      	12          	120         	0           	Open  	;
 P-1047          	O-AV-137        	J-480           	217.8       	8           	120         	0           	Open  	;
 P-1048          	O-AV-138        	J-481           	653.658     	8           	120         	0           	Open  	;
 P-1049          	O-AV-139        	J-435           	266.769     	6           	130         	0           	Open  	;
 P-105           	J-174           	I-AV-310        	224.649     	6           	130         	0           	Open  	;
 P-1050          	O-AV-140        	J-427           	629.64      	6           	130         	0           	Open  	;
 P-1051          	O-AV-141        	J-490           	669.869     	6           	130         	0           	Open  	;
 P-1052          	O-AV-142        	J-36            	491.16      	6           	130         	0           	Open  	;
 P-1053          	O-AV-143        	I-AV-142        	568.809     	6           	130         	0           	Open  	;
 P-1054          	O-AV-144        	J-553           	287.709     	6           	130         	0           	Open  	;
 P-1055          	O-AV-145        	J-342           	194.529     	6           	140         	0           	Open  	;
 P-1056          	O-AV-146        	J-146           	179.86      	6           	130         	0           	Open  	;
 P-1057          	O-AV-147        	J-584           	430.859     	6           	120         	0           	Open  	;
 P-1058          	O-AV-148        	J-656           	230.86      	6           	120         	0           	Open  	;
 P-1059          	O-AV-149        	J-161           	192.07      	6           	120         	0           	Open  	;
 P-106           	J-176           	J-177           	477.82      	6           	140         	0           	Open  	;
 P-1060          	O-AV-150        	J-511           	597.64      	2           	130         	0           	Open  	;
 P-1061          	O-AV-151        	I-AV-152        	395.528     	6           	40          	0           	Open  	;
 P-1062          	O-AV-152        	I-AV-181        	1588.67     	6           	40          	0           	Open  	;
 P-1063          	O-AV-153        	J-327           	343.428     	6           	40          	0           	Open  	;
 P-1064          	O-AV-154        	J-116           	240.35      	6           	120         	0           	Open  	;
 P-1065          	O-AV-155        	I-AV-156        	1325.968    	6           	120         	0           	Open  	;
 P-1066          	O-AV-156        	J-607           	200.169     	6           	120         	0           	Open  	;
 P-1067          	O-AV-157        	J-64            	181.729     	6           	130         	0           	Open  	;
 P-1068          	O-AV-158        	J-233           	183.229     	6           	120         	0           	Open  	;
 P-1069          	O-AV-159        	J-233           	222.66      	6           	120         	0           	Open  	;
 P-107           	J-178           	I-AV-451        	53.79       	6           	130         	0           	Open  	;
 P-1070          	O-AV-160        	J-575           	342.64      	6           	120         	0           	Open  	;
 P-1071          	O-AV-161        	I-AV-159        	539.169     	6           	120         	0           	Open  	;
 P-1072          	O-AV-162        	J-135           	222.199     	6           	120         	0           	Open  	;
 P-1073          	O-AV-163        	J-136           	279.329     	2           	100         	0           	Open  	;
 P-1074          	O-AV-164        	J-136           	216.72      	2           	130         	0           	Open  	;
 P-1075          	O-AV-165        	I-AV-162        	465.39      	6           	120         	0           	Open  	;
 P-1076          	O-AV-166        	I-AV-165        	383.178     	6           	120         	0           	Open  	;
 P-1077          	O-AV-167        	J-99            	211.97      	6           	120         	0           	Open  	;
 P-1078          	O-AV-168        	J-29            	182.009     	6           	130         	0           	Open  	;
 P-1079          	O-AV-169        	J-99            	182.679     	6           	120         	0           	Open  	;
 P-108           	J-118           	J-180           	294.97      	2           	130         	0           	Open  	;
 P-1080          	O-AV-170        	J-99            	208.029     	6           	120         	0           	Open  	;
 P-1081          	O-AV-171        	I-AV-169        	283.98      	6           	120         	0           	Open  	;
 P-1082          	O-AV-172        	J-129           	443.338     	6           	40          	0           	Open  	;
 P-1083          	O-AV-173        	J-681           	565.53      	6           	130         	0           	Open  	;
 P-1084          	O-AV-174        	J-434           	204.94      	6           	40          	0           	Open  	;
 P-1085          	O-AV-175        	J-243           	478.058     	6           	130         	0           	Open  	;
 P-1086          	O-AV-176        	J-434           	222.089     	6           	130         	0           	Open  	;
 P-1087          	O-AV-177        	J-468           	208.94      	6           	40          	0           	Open  	;
 P-1088          	O-AV-178        	J-571           	535.01      	6           	40          	0           	Open  	;
 P-1089          	O-AV-179        	J-30            	221.149     	6           	130         	0           	Open  	;
 P-109           	J-181           	J-182           	78.36       	6           	40          	0           	Open  	;
 P-1090          	O-AV-180        	J-570           	200.289     	6           	40          	0           	Open  	;
 P-1091          	O-AV-181        	J-589           	194.71      	6           	40          	0           	Open  	;
 P-1092          	O-AV-182        	J-590           	456.428     	2           	130         	0           	Open  	;
 P-1093          	O-AV-183        	J-631           	196.08      	6           	40          	0           	Open  	;
 P-1094          	O-AV-184        	J-571           	213.619     	6           	40          	0           	Open  	;
 P-1095          	O-AV-185        	J-121           	244.63      	6           	130         	0           	Open  	;
 P-1096          	O-AV-186        	I-AV-188        	683.979     	6           	130         	0           	Open  	;
 P-1097          	O-AV-187        	J-130           	216.08      	6           	130         	0           	Open  	;
 P-1098          	O-AV-188        	J-280           	195.929     	6           	130         	0           	Open  	;
 P-1099          	O-AV-189        	I-AV-167        	730.419     	6           	120         	0           	Open  	;
 P-11            	J-19            	I-AV-230        	183.639     	6           	40          	0           	Open  	;
 P-110           	J-183           	J-184           	166.389     	4           	100         	0           	Open  	;
 P-1100          	O-AV-190        	I-AV-233        	576.15      	16          	130         	0           	Open  	;
 P-1101          	O-AV-191        	J-120           	540.609     	6           	40          	0           	Open  	;
 P-1102          	O-AV-192        	J-127           	296.66      	6           	120         	0           	Open  	;
 P-1103          	O-AV-193        	J-128           	188.369     	6           	120         	0           	Open  	;
 P-1104          	O-AV-194        	J-163           	206.889     	6           	120         	0           	Open  	;
 P-1105          	O-AV-195        	J-131           	222.529     	4           	40          	0           	Open  	;
 P-1106          	O-AV-196        	J-62            	216.19      	16          	130         	0           	Open  	;
 P-1107          	O-AV-197        	J-411           	481.308     	6           	40          	0           	Open  	;
 P-1108          	O-AV-198        	J-636           	260.079     	16          	120         	0           	Open  	;
 P-1109          	O-AV-199        	J-336           	351.04      	4           	100         	0           	Open  	;
 P-111           	J-124           	I-AV-368        	214.809     	6           	70          	0           	Open  	;
 P-1110          	O-AV-200        	J-62            	191.449     	16          	40          	0           	Open  	;
 P-1111          	O-AV-201        	J-59            	232.13      	6           	40          	0           	Open  	;
 P-1112          	O-AV-202        	J-60            	254.61      	8           	40          	0           	Open  	;
 P-1114          	O-AV-204        	J-88            	462.859     	6           	40          	0           	Open  	;
 P-1115          	O-AV-205        	J-635           	400.95      	10          	40          	0           	Open  	;
 P-1116          	O-AV-206        	J-252           	211.36      	8           	40          	0           	Open  	;
 P-1117          	O-AV-207        	I-AV-236        	224.039     	8           	40          	0           	Open  	;
 P-1118          	O-AV-208        	J-563           	215.429     	10          	40          	0           	Open  	;
 P-1119          	O-AV-209        	J-94            	391.368     	10          	40          	0           	Open  	;
 P-112           	J-186           	J-187           	745.559     	12          	40          	0           	Open  	;
 P-1120          	O-AV-210        	J-346           	226.72      	6           	120         	0           	Open  	;
 P-1121          	O-AV-211        	J-564           	850.27      	10          	70          	0           	Open  	;
 P-1122          	O-AV-212        	J-599           	325.26      	10          	40          	0           	Open  	;
 P-1123          	O-AV-213        	I-AV-212        	414.868     	10          	40          	0           	Open  	;
 P-1124          	O-AV-214        	J-564           	2165.148    	2           	40          	0           	Open  	;
 P-1125          	O-AV-215        	I-AV-214        	691.77      	2           	40          	0           	Open  	;
 P-1126          	O-AV-216        	I-AV-348        	372         	10          	40          	0           	Open  	;
 P-1127          	O-AV-217        	J-394           	222.97      	10          	40          	0           	Open  	;
 P-1128          	O-AV-218        	J-187           	1059.328    	12          	40          	0           	Open  	;
 P-1129          	O-AV-219        	J-709           	178.5       	10          	40          	0           	Open  	;
 P-113           	J-188           	J-189           	10.26       	4           	40          	0           	Open  	;
 P-1130          	O-AV-220        	J-612           	1299.53     	10          	70          	0           	Open  	;
 P-1131          	O-AV-221        	J-320           	42.59       	12          	130         	0           	Open  	;
 P-1132          	O-AV-222        	I-AV-286        	1098.16     	6           	120         	0           	Open  	;
 P-1133          	O-AV-223        	J-706           	629.869     	10          	70          	0           	Open  	;
 P-1134          	O-AV-224        	J-708           	221.059     	10          	70          	0           	Open  	;
 P-1135          	O-AV-225        	J-586           	349.359     	6           	40          	0           	Open  	;
 P-1136          	O-AV-226        	J-416           	368.769     	6           	40          	0           	Open  	;
 P-1137          	O-AV-227        	J-417           	185.16      	6           	40          	0           	Open  	;
 P-1138          	O-AV-228        	I-AV-229        	419.7       	12          	40          	0           	Open  	;
 P-1139          	O-AV-229        	I-AV-250        	794.94      	12          	40          	0           	Open  	;
 P-114           	J-190           	J-191           	515.25      	6           	140         	0           	Open  	;
 P-1140          	O-AV-230        	J-20            	361         	6           	40          	0           	Open  	;
 P-1141          	O-AV-231        	J-417           	373.428     	6           	40          	0           	Open  	;
 P-1142          	O-AV-232        	J-497           	210.52      	6           	40          	0           	Open  	;
 P-1143          	O-AV-233        	I-AV-254        	1266.838    	16          	130         	0           	Open  	;
 P-1144          	O-AV-234        	J-463           	189.49      	12          	130         	0           	Open  	;
 P-1145          	O-AV-235        	J-497           	204.169     	8           	40          	0           	Open  	;
 P-1146          	O-AV-236        	J-496           	210.669     	8           	40          	0           	Open  	;
 P-1147          	O-AV-237        	I-AV-119        	1661.78     	12          	130         	0           	Open  	;
 P-1148          	O-AV-238        	J-253           	179.669     	8           	40          	0           	Open  	;
 P-1149          	O-AV-239        	J-229           	445.989     	6           	40          	0           	Open  	;
 P-115           	J-136           	J-141           	384.588     	2           	130         	0           	Open  	;
 P-1150          	O-AV-240        	J-253           	209.539     	6           	40          	0           	Open  	;
 P-1151          	O-AV-241        	J-253           	214.009     	6           	40          	0           	Open  	;
 P-1152          	O-AV-242        	J-207           	645.229     	6           	40          	0           	Open  	;
 P-1153          	O-AV-243        	J-196           	216.979     	6           	40          	0           	Open  	;
 P-1154          	O-AV-244        	J-398           	222.559     	10          	130         	0           	Open  	;
 P-1155          	O-AV-245        	I-AV-269        	331.32      	8           	120         	0           	Open  	;
 P-1156          	O-AV-246        	J-611           	581.65      	4           	40          	0           	Open  	;
 P-1157          	O-AV-247        	J-470           	475.75      	4           	40          	0           	Open  	;
 P-1158          	O-AV-248        	J-406           	228.77      	4           	40          	0           	Open  	;
 P-1159          	O-AV-249        	J-642           	192.8       	6           	40          	0           	Open  	;
 P-116           	J-192           	I-AV-61         	262.26      	6           	40          	0           	Open  	;
 P-1160          	O-AV-250        	J-642           	198.429     	12          	40          	0           	Open  	;
 P-1161          	O-AV-251        	I-AV-257        	811.95      	12          	40          	0           	Open  	;
 P-1162          	O-AV-252        	I-AV-253        	696.609     	6           	40          	0           	Open  	;
 P-1163          	O-AV-253        	J-609           	32.938      	6           	40          	0           	Open  	;
 P-1164          	O-AV-254        	J-227           	189.639     	16          	130         	0           	Open  	;
 P-1165          	O-AV-255        	J-432           	223.24      	6           	40          	0           	Open  	;
 P-1166          	O-AV-256        	I-AV-255        	423.989     	6           	40          	0           	Open  	;
 P-1167          	O-AV-257        	J-107           	197.929     	12          	40          	0           	Open  	;
 P-1168          	O-AV-258        	J-73            	313.63      	18          	70          	0           	Open  	;
 P-1169          	O-AV-259        	J-378           	818.859     	12          	120         	0           	Open  	;
 P-117           	J-194           	J-190           	41.45       	6           	140         	0           	Open  	;
 P-1170          	O-AV-260        	J-74            	201.699     	6           	130         	0           	Open  	;
 P-1171          	O-AV-261        	J-373           	217.91      	18          	70          	0           	Open  	;
 P-1172          	O-AV-262        	J-351           	421.868     	16          	70          	0           	Open  	;
 P-1173          	O-AV-263        	J-748           	5513.87     	8           	140         	0           	Open  	;
 P-1174          	O-AV-264        	J-376           	873.15      	10          	120         	0           	Open  	;
 P-1175          	I-AV-265        	J-498           	202.27      	6           	120         	0           	Open  	;
 P-1176          	O-AV-266        	J-378           	317.398     	8           	120         	0           	Open  	;
 P-1177          	O-AV-267        	J-325           	179.1       	6           	120         	0           	Open  	;
 P-1178          	O-AV-268        	J-469           	458.7       	6           	120         	0           	Open  	;
 P-1179          	O-AV-269        	J-324           	203.399     	8           	120         	0           	Open  	;
 P-118           	J-195           	I-AV-403        	176.27      	1.25        	130         	0           	Open  	;
 P-1180          	O-AV-270        	J-386           	194.69      	6           	70          	0           	Open  	;
 P-1181          	O-AV-271        	I-AV-270        	475.25      	6           	70          	0           	Open  	;
 P-1182          	O-AV-272        	J-203           	437.98      	6           	70          	0           	Open  	;
 P-1183          	O-AV-273        	J-212           	686.08      	4           	70          	0           	Open  	;
 P-1184          	O-AV-274        	J-386           	913.549     	6           	70          	0           	Open  	;
 P-1185          	O-AV-275        	J-712           	209.339     	6           	120         	0           	Open  	;
 P-1186          	O-AV-276        	J-292           	391.678     	6           	120         	0           	Open  	;
 P-1187          	O-AV-277        	J-215           	205.57      	6           	120         	0           	Open  	;
 P-1188          	O-AV-278        	J-298           	504.22      	6           	40          	0           	Open  	;
 P-1189          	O-AV-279        	I-AV-291        	408.16      	6           	120         	0           	Open  	;
 P-119           	J-176           	J-171           	72.3        	6           	140         	0           	Open  	;
 P-1190          	O-AV-280        	I-AV-283        	731.28      	6           	120         	0           	Open  	;
 P-1191          	O-AV-281        	I-AV-280        	492.76      	6           	120         	0           	Open  	;
 P-1192          	O-AV-282        	J-676           	197.38      	6           	120         	0           	Open  	;
 P-1193          	O-AV-283        	J-32            	181.74      	6           	120         	0           	Open  	;
 P-1194          	O-AV-284        	J-452           	207.229     	4           	100         	0           	Open  	;
 P-1195          	O-AV-285        	J-452           	200.509     	2           	130         	0           	Open  	;
 P-1196          	O-AV-286        	J-712           	197.979     	6           	120         	0           	Open  	;
 P-1197          	O-AV-287        	J-548           	184.16      	4           	40          	0           	Open  	;
 P-1198          	O-AV-288        	J-548           	202.119     	6           	40          	0           	Open  	;
 P-1199          	O-AV-289        	J-299           	210.089     	6           	120         	0           	Open  	;
 P-12            	J-21            	J-22            	425.67      	12          	130         	0           	Open  	;
 P-120           	J-196           	J-197           	8.34        	6           	40          	0           	Open  	;
 P-1200          	O-AV-290        	J-433           	44.72       	6           	130         	0           	Open  	;
 P-1201          	O-AV-291        	J-216           	178.279     	6           	120         	0           	Open  	;
 P-1202          	O-AV-292        	J-397           	282.588     	6           	120         	0           	Open  	;
 P-1203          	O-AV-293        	J-677           	512.39      	4           	100         	0           	Open  	;
 P-1204          	O-AV-294        	J-630           	196.059     	6           	120         	0           	Open  	;
 P-1205          	O-AV-295        	J-397           	221.07      	6           	120         	0           	Open  	;
 P-1206          	O-AV-296        	J-629           	215.52      	6           	120         	0           	Open  	;
 P-1207          	O-AV-297        	I-AV-319        	1080.8      	6           	120         	0           	Open  	;
 P-1208          	O-AV-298        	I-AV-294        	178.759     	6           	120         	0           	Open  	;
 P-1209          	O-AV-299        	I-AV-289        	498.75      	6           	120         	0           	Open  	;
 P-121           	J-166           	J-198           	24.92       	6           	120         	0           	Open  	;
 P-1210          	O-AV-300        	I-AV-296        	503.95      	6           	120         	0           	Open  	;
 P-1211          	O-AV-301        	I-AV-300        	382.6       	6           	120         	0           	Open  	;
 P-1212          	O-AV-302        	I-AV-301        	448.91      	6           	120         	0           	Open  	;
 P-1213          	O-AV-303        	I-AV-302        	432.47      	6           	120         	0           	Open  	;
 P-1214          	O-AV-304        	I-AV-303        	337.528     	6           	120         	0           	Open  	;
 P-1215          	O-AV-305        	J-244           	214.52      	6           	130         	0           	Open  	;
 P-1216          	O-AV-306        	I-AV-305        	140.46      	6           	130         	0           	Open  	;
 P-1217          	O-AV-307        	J-306           	220.24      	6           	120         	0           	Open  	;
 P-1218          	O-AV-308        	J-385           	943.14      	4           	100         	0           	Open  	;
 P-1219          	O-AV-309        	I-AV-338        	1013.848    	6           	120         	0           	Open  	;
 P-122           	J-138           	J-199           	349.82      	6           	120         	0           	Open  	;
 P-1220          	O-AV-310        	J-175           	135.11      	6           	130         	0           	Open  	;
 P-1221          	O-AV-311        	J-267           	222.99      	6           	40          	0           	Open  	;
 P-1222          	O-AV-312        	J-267           	206.27      	6           	40          	0           	Open  	;
 P-1223          	O-AV-313        	J-358           	201.809     	6           	40          	0           	Open  	;
 P-1224          	O-AV-314        	J-11            	217.38      	6           	40          	0           	Open  	;
 P-1225          	O-AV-315        	J-231           	400.7       	6           	120         	0           	Open  	;
 P-1226          	O-AV-316        	J-225           	208.589     	6           	120         	0           	Open  	;
 P-1227          	O-AV-317        	J-319           	209.83      	6           	120         	0           	Open  	;
 P-1228          	O-AV-318        	I-AV-317        	385.838     	6           	120         	0           	Open  	;
 P-1229          	O-AV-319        	J-507           	197.399     	6           	120         	0           	Open  	;
 P-123           	J-66            	J-200           	10.02       	4           	100         	0           	Open  	;
 P-1230          	O-AV-320        	J-278           	185.83      	4           	40          	0           	Open  	;
 P-1231          	O-AV-321        	J-489           	215.08      	6           	120         	0           	Open  	;
 P-1232          	O-AV-322        	J-489           	188.69      	6           	120         	0           	Open  	;
 P-1233          	O-AV-323        	I-AV-322        	694.32      	6           	120         	0           	Open  	;
 P-1234          	O-AV-324        	J-282           	1478.938    	6           	40          	0           	Open  	;
 P-1235          	O-AV-325        	J-259           	217.74      	8           	40          	0           	Open  	;
 P-1236          	O-AV-326        	I-AV-328        	571.84      	6           	40          	0           	Open  	;
 P-1237          	O-AV-327        	J-259           	188.5       	6           	40          	0           	Open  	;
 P-1238          	O-AV-328        	J-12            	516.19      	6           	40          	0           	Open  	;
 P-1239          	O-AV-329        	I-AV-334        	404.79      	10          	40          	0           	Open  	;
 P-124           	J-128           	I-AV-196        	1322.27     	16          	130         	0           	Open  	;
 P-1240          	O-AV-330        	J-762           	213.149     	16          	130         	0           	Open  	;
 P-1241          	O-AV-331        	J-507           	173.52      	6           	40          	0           	Open  	;
 P-1242          	O-AV-332        	J-625           	213.85      	8           	40          	0           	Open  	;
 P-1243          	O-AV-333        	J-151           	204.149     	6           	40          	0           	Open  	;
 P-1244          	O-AV-334        	J-618           	207.059     	10          	40          	0           	Open  	;
 P-1245          	O-AV-335        	J-618           	207.88      	6           	40          	0           	Open  	;
 P-1246          	O-AV-336        	I-AV-345        	1008.419    	10          	40          	0           	Open  	;
 P-1247          	O-AV-337        	J-482           	393.25      	8           	40          	0           	Open  	;
 P-1248          	O-AV-338        	J-240           	195.229     	6           	120         	0           	Open  	;
 P-1249          	O-AV-339        	I-AV-311        	1465.01     	6           	40          	0           	Open  	;
 P-125           	J-124           	I-AV-369        	179.889     	6           	70          	0           	Open  	;
 P-1250          	O-AV-340        	J-67            	212.35      	6           	40          	0           	Open  	;
 P-1251          	O-AV-341        	J-27            	220.69      	8           	40          	0           	Open  	;
 P-1252          	O-AV-342        	J-331           	644.02      	6           	120         	0           	Open  	;
 P-1253          	O-AV-343        	J-52            	226.61      	8           	40          	0           	Open  	;
 P-1254          	O-AV-344        	J-414           	257.13      	6           	130         	0           	Open  	;
 P-1255          	O-AV-345        	J-95            	231.13      	10          	40          	0           	Open  	;
 P-1256          	O-AV-346        	J-152           	215.22      	6           	40          	0           	Open  	;
 P-1257          	O-AV-347        	I-AV-217        	1581.818    	10          	40          	0           	Open  	;
 P-1258          	O-AV-348        	J-95            	256.79      	10          	40          	0           	Open  	;
 P-1259          	O-AV-349        	J-527           	690.729     	8           	130         	0           	Open  	;
 P-126           	J-203           	J-204           	690.7       	6           	130         	0           	Open  	;
 P-1260          	O-AV-350        	I-AV-349        	402.519     	8           	130         	0           	Open  	;
 P-1261          	O-AV-351        	J-512           	237.41      	6           	40          	0           	Open  	;
 P-1262          	O-AV-352        	J-105           	448.26      	6           	40          	0           	Open  	;
 P-1263          	O-AV-353        	J-349           	195.97      	6           	120         	0           	Open  	;
 P-1264          	O-AV-354        	J-540           	426.079     	6           	140         	0           	Open  	;
 P-1265          	O-AV-355        	J-47            	318.148     	12          	130         	0           	Open  	;
 P-1266          	O-AV-356        	I-AV-355        	163.55      	12          	130         	0           	Open  	;
 P-1267          	O-AV-357        	J-428           	162.699     	8           	40          	0           	Open  	;
 P-1268          	O-AV-358        	J-500           	193.529     	6           	40          	0           	Open  	;
 P-1269          	O-AV-359        	J-57            	225.729     	8           	40          	0           	Open  	;
 P-127           	J-65            	J-160           	168.08      	6           	120         	0           	Open  	;
 P-1270          	O-AV-360        	J-690           	992.179     	6           	40          	0           	Open  	;
 P-1271          	O-AV-361        	I-AV-359        	592.65      	8           	40          	0           	Open  	;
 P-1272          	O-AV-362        	I-AV-361        	359.079     	8           	40          	0           	Open  	;
 P-1273          	O-AV-363        	J-471           	277.23      	6           	70          	0           	Open  	;
 P-1274          	O-AV-364        	I-AV-353        	372.558     	6           	120         	0           	Open  	;
 P-1275          	O-AV-365        	J-124           	452.049     	6           	70          	0           	Open  	;
 P-1276          	O-AV-366        	J-228           	1122.828    	6           	130         	0           	Open  	;
 P-1277          	O-AV-367        	J-344           	369.82      	6           	70          	0           	Open  	;
 P-1278          	O-AV-368        	J-185           	723.02      	6           	70          	0           	Open  	;
 P-1279          	O-AV-369        	I-AV-370        	930.598     	6           	70          	0           	Open  	;
 P-128           	J-205           	I-AV-67         	276.868     	6           	40          	0           	Open  	;
 P-1280          	O-AV-370        	J-202           	216.899     	6           	70          	0           	Open  	;
 P-1281          	O-AV-371        	J-202           	183.789     	8           	70          	0           	Open  	;
 P-1282          	O-AV-372        	J-693           	188.21      	8           	70          	0           	Open  	;
 P-1283          	O-AV-373        	I-AV-374        	403.38      	6           	70          	0           	Open  	;
 P-1284          	O-AV-374        	J-693           	207.69      	6           	70          	0           	Open  	;
 P-1285          	O-AV-375        	J-349           	275.239     	10          	120         	0           	Open  	;
 P-1286          	O-AV-376        	J-727           	10919.07    	8           	140         	0           	Open  	;
 P-1287          	O-AV-377        	J-730           	370.63      	8           	140         	0           	Open  	;
 P-1288          	O-AV-378        	J-523           	574.59      	1           	130         	0           	Open  	;
 P-1289          	O-AV-379        	J-746           	202.57      	12          	130         	0           	Open  	;
 P-129           	J-125           	I-AV-431        	564.848     	6           	130         	0           	Open  	;
 P-1290          	O-AV-380        	J-544           	214.619     	6           	140         	0           	Open  	;
 P-1291          	O-AV-381        	I-AV-384        	614.08      	8           	130         	0           	Open  	;
 P-1292          	O-AV-382        	I-AV-350        	150.789     	8           	130         	0           	Open  	;
 P-1293          	O-AV-383        	I-AV-382        	325.79      	8           	130         	0           	Open  	;
 P-1294          	O-AV-384        	I-AV-383        	409.459     	8           	130         	0           	Open  	;
 P-1295          	O-AV-385        	J-167           	200.509     	1.25        	130         	0           	Open  	;
 P-1296          	O-AV-386        	I-AV-375        	380.308     	10          	120         	0           	Open  	;
 P-1297          	O-AV-387        	I-AV-385        	586.76      	1.25        	130         	0           	Open  	;
 P-1298          	O-AV-388        	J-455           	1229.208    	8           	130         	0           	Open  	;
 P-1299          	O-AV-389        	I-AV-390        	370.558     	12          	130         	0           	Open  	;
 P-13            	J-23            	J-24            	351.489     	6           	40          	0           	Open  	;
 P-130           	J-197           	I-AV-242        	184.1       	6           	40          	0           	Open  	;
 P-1300          	O-AV-390        	J-596           	210.059     	12          	130         	0           	Open  	;
 P-1301          	O-AV-391        	J-332           	212.539     	12          	130         	0           	Open  	;
 P-1302          	O-AV-392        	I-AV-396        	735.559     	12          	130         	0           	Open  	;
 P-1303          	O-AV-393        	J-333           	2926.52     	12          	130         	0           	Open  	;
 P-1304          	O-AV-394        	J-626           	216.41      	12          	130         	0           	Open  	;
 P-1305          	O-AV-395        	J-668           	63.458      	8           	130         	0           	Open  	;
 P-1306          	O-AV-396        	J-623           	203.619     	12          	130         	0           	Open  	;
 P-1307          	O-AV-397        	J-366           	413.028     	10          	120         	0           	Open  	;
 P-1308          	O-AV-398        	J-4             	811.77      	6           	120         	0           	Open  	;
 P-1309          	O-AV-399        	J-167           	634.44      	12          	130         	0           	Open  	;
 P-131           	J-130           	J-208           	127.668     	2           	130         	0           	Open  	;
 P-1310          	O-AV-400        	J-166           	200.22      	6           	120         	0           	Open  	;
 P-1311          	O-AV-401        	J-198           	215.52      	6           	120         	0           	Open  	;
 P-1312          	O-AV-402        	I-AV-409        	681.9       	6           	120         	0           	Open  	;
 P-1313          	O-AV-403        	I-AV-404        	338.14      	1.25        	130         	0           	Open  	;
 P-1314          	O-AV-404        	J-169           	219.009     	1.25        	130         	0           	Open  	;
 P-1315          	O-AV-405        	J-302           	429.22      	12          	130         	0           	Open  	;
 P-1316          	O-AV-406        	J-544           	249.33      	6           	140         	0           	Open  	;
 P-1317          	O-AV-407        	J-521           	230.729     	6           	140         	0           	Open  	;
 P-1318          	O-AV-408        	J-421           	1155.119    	8           	120         	0           	Open  	;
 P-1319          	O-AV-409        	I-AV-400        	411.778     	6           	120         	0           	Open  	;
 P-132           	J-209           	I-AV-103        	180.399     	6           	40          	0           	Open  	;
 P-1320          	O-AV-410        	J-520           	220.52      	12          	130         	0           	Open  	;
 P-1321          	I-AV-411        	J-683           	228.919     	8           	140         	0           	Open  	;
 P-1322          	O-AV-412        	J-38            	141.71      	8           	130         	0           	Open  	;
 P-1323          	O-AV-413        	J-558           	1103.39     	8           	120         	0           	Open  	;
 P-1324          	O-AV-414        	T-1             	136.07      	16          	130         	0           	Open  	;
 P-1325          	O-AV-415        	J-488           	177.21      	10          	120         	0           	Open  	;
 P-1326          	O-AV-416        	J-488           	223.33      	8           	120         	0           	Open  	;
 P-1327          	O-AV-417        	I-AV-418        	681.28      	12          	120         	0           	Open  	;
 P-1328          	O-AV-418        	I-AV-419        	847.83      	12          	120         	0           	Open  	;
 P-1329          	O-AV-419        	J-493           	647.95      	12          	120         	0           	Open  	;
 P-133           	J-211           	I-AV-273        	187.5       	4           	70          	0           	Open  	;
 P-1330          	O-AV-420        	J-592           	225.02      	8           	120         	0           	Open  	;
 P-1331          	O-AV-421        	J-592           	215.199     	2           	130         	0           	Open  	;
 P-1332          	O-AV-422        	J-620           	235.169     	4           	100         	0           	Open  	;
 P-1333          	O-AV-423        	I-AV-420        	402.838     	8           	120         	0           	Open  	;
 P-1334          	O-AV-424        	I-AV-423        	367.209     	8           	120         	0           	Open  	;
 P-1335          	O-AV-425        	J-524           	190.509     	16          	130         	0           	Open  	;
 P-1336          	O-AV-426        	J-13            	614.979     	8           	120         	0           	Open  	;
 P-1337          	O-AV-427        	I-AV-428        	53.15       	10          	120         	0           	Open  	;
 P-1338          	O-AV-428        	J-96            	866.158     	10          	120         	0           	Open  	;
 P-1339          	O-AV-429        	J-502           	184.919     	12          	130         	0           	Open  	;
 P-134           	J-213           	J-214           	159.039     	6           	40          	0           	Open  	;
 P-1340          	O-AV-430        	I-AV-429        	208.91      	12          	130         	0           	Open  	;
 P-1341          	O-AV-431        	J-133           	229.32      	6           	130         	0           	Open  	;
 P-1342          	O-AV-432        	J-134           	285.7       	8           	120         	0           	Open  	;
 P-1343          	O-AV-433        	J-115           	183.149     	4           	100         	0           	Open  	;
 P-1344          	O-AV-434        	J-133           	621.64      	6           	120         	0           	Open  	;
 P-1345          	O-AV-435        	J-287           	245         	4           	100         	0           	Open  	;
 P-1346          	O-AV-436        	J-698           	1708.29     	16          	130         	0           	Open  	;
 P-1347          	O-AV-437        	J-353           	193.07      	10          	120         	0           	Open  	;
 P-1348          	O-AV-438        	I-AV-437        	382.82      	10          	120         	0           	Open  	;
 P-1349          	O-AV-439        	J-353           	184.779     	4           	100         	0           	Open  	;
 P-135           	J-215           	I-AV-279        	221.199     	6           	120         	0           	Open  	;
 P-1350          	O-AV-440        	J-354           	714.229     	10          	120         	0           	Open  	;
 P-1351          	O-AV-441        	J-317           	219.559     	10          	120         	0           	Open  	;
 P-1352          	O-AV-442        	J-143           	211.49      	10          	130         	0           	Open  	;
 P-1353          	O-AV-443        	J-49            	153.91      	6           	130         	0           	Open  	;
 P-1354          	O-AV-444        	J-108           	899.28      	8           	140         	0           	Open  	;
 P-1355          	O-AV-445        	J-71            	239.71      	8           	140         	0           	Open  	;
 P-1356          	O-AV-446        	J-72            	320.38      	6           	140         	0           	Open  	;
 P-1357          	O-AV-447        	J-525           	526.76      	16          	130         	0           	Open  	;
 P-1358          	O-AV-448        	J-383           	188.449     	6           	130         	0           	Open  	;
 P-1359          	O-AV-449        	J-110           	965.39      	6           	130         	0           	Open  	;
 P-136           	J-217           	J-218           	190.36      	6           	130         	0           	Open  	;
 P-1360          	O-AV-450        	J-111           	244.059     	6           	130         	0           	Open  	;
 P-1361          	O-AV-451        	I-AV-30         	655.58      	6           	130         	0           	Open  	;
 P-1362          	O-AV-452        	J-646           	467.17      	6           	130         	0           	Open  	;
 P-1363          	O-AV-453        	J-538           	203.21      	6           	130         	0           	Open  	;
 P-1364          	O-AV-454        	J-341           	438.058     	6           	130         	0           	Open  	;
 P-1365          	O-AV-455        	J-42            	223.44      	6           	130         	0           	Open  	;
 P-1366          	O-AV-456        	J-760           	477.85      	6           	130         	0           	Open  	;
 P-1367          	O-AV-457        	I-AV-12         	928.859     	6           	140         	0           	Open  	;
 P-1368          	O-AV-458        	J-543           	1154.208    	6           	130         	0           	Open  	;
 P-1369          	O-AV-459        	J-388           	179.759     	6           	130         	0           	Open  	;
 P-137           	J-219           	J-130           	81.838      	2           	130         	0           	Open  	;
 P-1370          	O-AV-460        	J-108           	554.789     	8           	140         	0           	Open  	;
 P-1371          	O-AV-461        	J-150           	286.609     	8           	130         	0           	Open  	;
 P-1372          	O-AV-462        	J-657           	205.66      	6           	130         	0           	Open  	;
 P-1373          	O-AV-463        	I-AV-462        	95.73       	6           	130         	0           	Open  	;
 P-1374          	O-AV-464        	J-446           	225.61      	6           	155         	0           	Open  	;
 P-1375          	O-AV-465        	J-716           	310.89      	6           	130         	0           	Open  	;
 P-1376          	O-AV-466        	J-312           	159.979     	6           	130         	0           	Open  	;
 P-1377          	O-AV-467        	J-150           	717.52      	8           	200         	0           	Open  	;
 P-1378          	O-AV-468        	J-295           	343.76      	6           	130         	0           	Open  	;
 P-138           	J-154           	J-220           	607.408     	6           	130         	0           	Open  	;
 P-139           	J-222           	J-84            	519.119     	6           	40          	0           	Open  	;
 P-14            	J-25            	I-AV-111        	194.699     	6           	40          	0           	Open  	;
 P-140           	J-26            	J-223           	429.69      	4           	40          	0           	Open  	;
 P-141           	J-224           	J-225           	54.208      	4           	40          	0           	Open  	;
 P-142           	J-226           	I-AV-190        	309.98      	16          	130         	0           	Open  	;
 P-143           	J-228           	J-156           	106.418     	6           	130         	0           	Open  	;
 P-144           	J-79            	J-139           	377.1       	4           	100         	0           	Open  	;
 P-145           	J-230           	J-63            	197.839     	6           	130         	0           	Open  	;
 P-146           	J-231           	J-184           	197.99      	6           	120         	0           	Open  	;
 P-147           	J-232           	J-126           	325.088     	6           	120         	0           	Open  	;
 P-148           	J-135           	I-AV-161        	176.36      	6           	120         	0           	Open  	;
 P-149           	J-234           	I-AV-19         	178.229     	6           	130         	0           	Open  	;
 P-15            	J-27            	J-28            	122.628     	8           	40          	0           	Open  	;
 P-150           	J-167           	J-236           	148.479     	1.25        	130         	0           	Open  	;
 P-151           	J-237           	J-238           	40.888      	2           	130         	0           	Open  	;
 P-152           	J-239           	J-240           	16.26       	6           	40          	0           	Open  	;
 P-153           	J-241           	J-194           	241.389     	6           	140         	0           	Open  	;
 P-154           	J-242           	J-194           	158.119     	6           	140         	0           	Open  	;
 P-155           	J-243           	I-AV-306        	532.13      	6           	130         	0           	Open  	;
 P-156           	J-237           	J-245           	1482.598    	4           	130         	0           	Open  	;
 P-157           	J-190           	J-725           	335.5       	6           	140         	0           	Open  	;
 P-158           	J-174           	J-247           	81.378      	6           	130         	0           	Open  	;
 P-159           	J-248           	I-AV-45         	240.559     	6           	140         	0           	Open  	;
 P-16            	J-29            	I-AV-179        	271.41      	6           	130         	0           	Open  	;
 P-160           	J-195           	I-AV-402        	381.808     	6           	120         	0           	Open  	;
 P-161           	J-732           	J-250           	728.559     	16          	70          	0           	Open  	;
 P-162           	J-252           	I-AV-238        	745.39      	8           	40          	0           	Open  	;
 P-163           	J-245           	J-254           	859.979     	4           	130         	0           	Open  	;
 P-164           	J-255           	J-173           	285.94      	6           	140         	0           	Open  	;
 P-165           	J-256           	J-257           	252.809     	4           	40          	0           	Open  	;
 P-166           	J-258           	I-AV-325        	174.009     	8           	40          	0           	Open  	;
 P-167           	J-260           	J-261           	444.778     	8           	130         	0           	Open  	;
 P-168           	J-262           	J-263           	132.91      	6           	120         	0           	Open  	;
 P-169           	J-260           	I-AV-15         	150.97      	8           	130         	0           	Open  	;
 P-17            	J-31            	I-AV-281        	198.57      	6           	120         	0           	Open  	;
 P-170           	J-265           	J-266           	638.9       	2           	130         	0           	Open  	;
 P-171           	J-240           	I-AV-339        	188.259     	6           	40          	0           	Open  	;
 P-172           	J-268           	J-241           	1009.559    	6           	140         	0           	Open  	;
 P-173           	J-171           	J-269           	1627.15     	6           	120         	0           	Open  	;
 P-174           	J-270           	I-AV-39         	325.338     	6           	130         	0           	Open  	;
 P-175           	J-272           	I-AV-40         	174.289     	8           	120         	0           	Open  	;
 P-176           	J-274           	J-257           	599.65      	8           	40          	0           	Open  	;
 P-177           	J-275           	J-276           	87.83       	12          	120         	0           	Open  	;
 P-178           	J-277           	I-AV-312        	662.46      	6           	40          	0           	Open  	;
 P-179           	J-184           	J-278           	190.699     	6           	120         	0           	Open  	;
 P-18            	J-33            	J-34            	1171.098    	6           	40          	0           	Open  	;
 P-180           	J-120           	J-279           	191.49      	6           	40          	0           	Open  	;
 P-181           	J-147           	I-AV-186        	214.86      	6           	130         	0           	Open  	;
 P-182           	J-88            	J-281           	301.42      	6           	40          	0           	Open  	;
 P-183           	J-274           	J-281           	267.22      	10          	40          	0           	Open  	;
 P-184           	J-282           	J-283           	674.739     	4           	40          	0           	Open  	;
 P-185           	J-281           	J-284           	172.74      	6           	40          	0           	Open  	;
 P-186           	J-285           	I-AV-164        	155.839     	2           	130         	0           	Open  	;
 P-187           	J-286           	I-AV-435        	144.509     	4           	100         	0           	Open  	;
 P-188           	J-732           	J-288           	483.75      	10          	70          	0           	Open  	;
 P-189           	J-289           	J-217           	121.43      	6           	130         	0           	Open  	;
 P-19            	J-35            	I-AV-143        	212.21      	6           	130         	0           	Open  	;
 P-190           	J-290           	J-291           	121.01      	6           	40          	0           	Open  	;
 P-191           	J-292           	J-293           	205.19      	2           	130         	0           	Open  	;
 P-192           	J-294           	I-AV-5          	184.529     	6           	130         	0           	Open  	;
 P-193           	J-242           	J-296           	531.57      	8           	140         	0           	Open  	;
 P-194           	J-259           	I-AV-326        	212.07      	6           	40          	0           	Open  	;
 P-195           	J-257           	J-297           	216.88      	8           	40          	0           	Open  	;
 P-196           	J-298           	J-299           	150.229     	6           	40          	0           	Open  	;
 P-197           	J-300           	I-AV-131        	197.509     	12          	120         	0           	Open  	;
 P-198           	J-302           	J-730           	530.739     	8           	140         	0           	Open  	;
 P-199           	J-303           	J-232           	340.709     	6           	120         	0           	Open  	;
 P-2             	J-3             	J-4             	595.69      	2           	130         	0           	Open  	;
 P-20            	J-37            	I-AV-412        	632.419     	8           	130         	0           	Open  	;
 P-200           	J-304           	J-237           	818.14      	2           	130         	0           	Open  	;
 P-201           	J-273           	I-AV-77         	381.25      	8           	120         	0           	Open  	;
 P-202           	J-175           	J-306           	356.94      	2           	130         	0           	Open  	;
 P-203           	J-307           	J-113           	455.17      	6           	140         	0           	Open  	;
 P-204           	J-213           	J-309           	1723.729    	6           	40          	0           	Open  	;
 P-205           	J-256           	J-310           	89.598      	6           	40          	0           	Open  	;
 P-206           	J-311           	I-AV-17         	213.46      	6           	130         	0           	Open  	;
 P-207           	J-313           	I-AV-166        	406.609     	6           	120         	0           	Open  	;
 P-208           	J-314           	J-258           	174.44      	8           	40          	0           	Open  	;
 P-209           	J-315           	J-316           	290.898     	6           	130         	0           	Open  	;
 P-21            	J-39            	J-40            	232.559     	6           	130         	0           	Open  	;
 P-210           	J-143           	I-AV-441        	233.869     	10          	120         	0           	Open  	;
 P-211           	J-318           	J-319           	58.22       	4           	100         	0           	Open  	;
 P-212           	J-184           	J-318           	203.619     	4           	100         	0           	Open  	;
 P-213           	J-212           	I-AV-272        	206.289     	6           	70          	0           	Open  	;
 P-214           	J-320           	I-AV-414        	137.869     	16          	130         	0           	Open  	;
 P-215           	J-284           	J-256           	430.69      	6           	40          	0           	Open  	;
 P-216           	J-322           	J-323           	484.588     	12          	130         	0           	Open  	;
 P-217           	J-324           	J-325           	417.959     	8           	120         	0           	Open  	;
 P-218           	J-326           	J-138           	112.36      	6           	120         	0           	Open  	;
 P-219           	J-116           	I-AV-153        	179.429     	6           	40          	0           	Open  	;
 P-22            	J-41            	I-AV-456        	175.479     	6           	130         	0           	Open  	;
 P-220           	J-328           	J-329           	3145.628    	3           	140         	0           	Open  	;
 P-221           	J-732           	J-266           	490.2       	2           	130         	0           	Open  	;
 P-222           	J-330           	I-AV-342        	444.04      	6           	120         	0           	Open  	;
 P-223           	J-332           	I-AV-393        	202.289     	12          	130         	0           	Open  	;
 P-224           	J-134           	J-334           	419.23      	8           	120         	0           	Open  	;
 P-225           	J-335           	I-AV-199        	221.279     	4           	100         	0           	Open  	;
 P-226           	J-337           	J-338           	483.19      	6           	130         	0           	Open  	;
 P-227           	J-339           	J-340           	532.989     	8           	130         	0           	Open  	;
 P-228           	J-341           	J-337           	212.139     	6           	130         	0           	Open  	;
 P-229           	J-342           	J-35            	460.579     	6           	130         	0           	Open  	;
 P-23            	J-43            	J-15            	286.75      	4           	70          	0           	Open  	;
 P-230           	J-343           	J-344           	456.058     	6           	70          	0           	Open  	;
 P-231           	J-244           	I-AV-307        	197.94      	6           	120         	0           	Open  	;
 P-232           	J-45            	I-AV-410        	450.54      	12          	130         	0           	Open  	;
 P-233           	J-345           	I-AV-210        	359.079     	6           	120         	0           	Open  	;
 P-234           	J-347           	J-348           	507.45      	4           	100         	0           	Open  	;
 P-235           	J-331           	I-AV-364        	833.26      	6           	120         	0           	Open  	;
 P-236           	J-350           	J-223           	209.13      	6           	40          	0           	Open  	;
 P-237           	J-351           	J-250           	2966.968    	16          	70          	0           	Open  	;
 P-238           	J-26            	J-352           	165.889     	6           	40          	0           	Open  	;
 P-239           	J-353           	I-AV-440        	260.368     	10          	120         	0           	Open  	;
 P-24            	J-44            	J-45            	3431.12     	12          	130         	0           	Open  	;
 P-240           	J-83            	I-AV-107        	175.869     	6           	120         	0           	Open  	;
 P-241           	J-356           	I-AV-23         	206.57      	8           	130         	0           	Open  	;
 P-242           	J-358           	I-AV-314        	196.419     	6           	40          	0           	Open  	;
 P-243           	J-359           	J-360           	227.32      	1.5         	130         	0           	Open  	;
 P-244           	J-361           	J-264           	290.38      	12          	130         	0           	Open  	;
 P-245           	J-362           	J-68            	429.928     	4           	40          	0           	Open  	;
 P-246           	J-363           	I-AV-228        	557.28      	12          	40          	0           	Open  	;
 P-247           	J-364           	J-25            	250.839     	4           	40          	0           	Open  	;
 P-248           	J-365           	I-AV-397        	194.85      	10          	120         	0           	Open  	;
 P-249           	J-209           	I-AV-101        	192.99      	6           	40          	0           	Open  	;
 P-25            	J-46            	I-AV-356        	342.72      	12          	130         	0           	Open  	;
 P-250           	J-368           	I-AV-109        	183.32      	6           	120         	0           	Open  	;
 P-251           	J-178           	J-369           	293.29      	6           	130         	0           	Open  	;
 P-252           	J-154           	J-370           	328.459     	10          	130         	0           	Open  	;
 P-253           	J-42            	J-144           	1016.9      	6           	130         	0           	Open  	;
 P-254           	J-179           	I-AV-32         	208.25      	6           	130         	0           	Open  	;
 P-255           	J-115           	J-371           	107.138     	4           	100         	0           	Open  	;
 P-256           	J-315           	J-186           	338.72      	6           	130         	0           	Open  	;
 P-257           	J-372           	J-81            	64.488      	2           	40          	0           	Open  	;
 P-258           	J-340           	J-356           	426.239     	8           	130         	0           	Open  	;
 P-259           	J-761           	T-2             	50.59       	18          	70          	0           	Open  	;
 P-26            	J-48            	J-49            	396.609     	8           	140         	0           	Open  	;
 P-260           	J-375           	I-AV-264        	182.58      	10          	120         	0           	Open  	;
 P-261           	J-721           	I-AV-58         	196.619     	6           	40          	0           	Open  	;
 P-262           	J-377           	I-AV-115        	218.24      	6           	120         	0           	Open  	;
 P-263           	J-107           	I-AV-259        	250.899     	12          	120         	0           	Open  	;
 P-264           	J-81            	I-AV-71         	174.32      	2           	40          	0           	Open  	;
 P-265           	J-380           	I-AV-53         	496.428     	6           	120         	0           	Open  	;
 P-266           	J-368           	I-AV-108        	209.669     	6           	120         	0           	Open  	;
 P-267           	J-319           	J-69            	175.25      	4           	40          	0           	Open  	;
 P-268           	J-369           	I-AV-448        	225.86      	6           	130         	0           	Open  	;
 P-269           	J-126           	J-384           	372.778     	6           	120         	0           	Open  	;
 P-27            	J-50            	J-51            	5743.838    	6           	140         	0           	Open  	;
 P-270           	J-348           	J-335           	169.07      	6           	120         	0           	Open  	;
 P-271           	J-369           	I-AV-449        	167.309     	6           	130         	0           	Open  	;
 P-272           	J-162           	J-141           	138.63      	2           	130         	0           	Open  	;
 P-273           	J-181           	I-AV-117        	183.82      	6           	40          	0           	Open  	;
 P-274           	J-49            	J-102           	546.4       	8           	140         	0           	Open  	;
 P-275           	J-330           	I-AV-308        	196.869     	4           	100         	0           	Open  	;
 P-276           	J-203           	I-AV-271        	404.94      	6           	70          	0           	Open  	;
 P-277           	J-140           	J-387           	47.83       	4           	100         	0           	Open  	;
 P-278           	J-388           	J-389           	675.25      	6           	130         	0           	Open  	;
 P-279           	J-375           	J-390           	348.588     	10          	120         	0           	Open  	;
 P-28            	J-52            	J-53            	451.239     	12          	40          	0           	Open  	;
 P-280           	J-391           	J-392           	526.848     	6           	130         	0           	Open  	;
 P-281           	J-87            	J-393           	246.679     	4           	40          	0           	Open  	;
 P-282           	J-95            	I-AV-347        	176.13      	10          	40          	0           	Open  	;
 P-283           	J-394           	J-395           	498.38      	10          	40          	0           	Open  	;
 P-284           	J-396           	J-328           	4479.47     	6           	140         	0           	Open  	;
 P-285           	J-216           	I-AV-292        	195.02      	6           	120         	0           	Open  	;
 P-286           	J-398           	I-AV-114        	209.27      	12          	130         	0           	Open  	;
 P-287           	J-238           	I-AV-47         	501.85      	6           	120         	0           	Open  	;
 P-288           	J-145           	J-399           	425.1       	6           	130         	0           	Open  	;
 P-289           	J-146           	I-AV-124        	353.019     	6           	130         	0           	Open  	;
 P-29            	J-54            	J-201           	282.85      	6           	43          	0           	Open  	;
 P-290           	J-385           	J-400           	651.45      	2           	130         	0           	Open  	;
 P-291           	J-364           	J-401           	766.09      	2           	40          	0           	Open  	;
 P-292           	J-402           	J-209           	762.239     	6           	40          	0           	Open  	;
 P-293           	J-403           	J-404           	231.729     	4           	100         	0           	Open  	;
 P-294           	J-405           	J-192           	7.32        	6           	40          	0           	Open  	;
 P-295           	J-406           	J-616           	16.878      	6           	40          	0           	Open  	;
 P-296           	J-153           	J-462           	1589.27     	10          	130         	0           	Open  	;
 P-297           	J-409           	I-AV-112        	123.86      	6           	40          	0           	Open  	;
 P-298           	J-357           	I-AV-22         	165.82      	8           	130         	0           	Open  	;
 P-299           	J-411           	I-AV-121        	125.738     	6           	40          	0           	Open  	;
 P-3             	J-5             	J-6             	9092.128    	6           	140         	0           	Open  	;
 P-30            	J-55            	J-56            	261.63      	8           	140         	0           	Open  	;
 P-300           	J-412           	I-AV-197        	206.97      	6           	40          	0           	Open  	;
 P-301           	J-411           	I-AV-122        	423.618     	6           	40          	0           	Open  	;
 P-302           	J-284           	I-AV-344        	214.22      	6           	130         	0           	Open  	;
 P-303           	J-269           	J-195           	953.299     	6           	120         	0           	Open  	;
 P-304           	J-22            	J-30            	594.5       	12          	130         	0           	Open  	;
 P-305           	J-365           	I-AV-386        	219.979     	10          	120         	0           	Open  	;
 P-306           	J-339           	J-415           	734.75      	6           	130         	0           	Open  	;
 P-307           	J-416           	I-AV-227        	228.369     	6           	40          	0           	Open  	;
 P-308           	J-418           	J-419           	859.179     	8           	120         	0           	Open  	;
 P-309           	J-199           	J-420           	226.75      	6           	120         	0           	Open  	;
 P-31            	J-57            	J-58            	380.75      	6           	40          	0           	Open  	;
 P-310           	J-419           	J-421           	48.13       	8           	120         	0           	Open  	;
 P-311           	J-422           	I-AV-145        	852.158     	6           	140         	0           	Open  	;
 P-312           	J-272           	I-AV-42         	205.699     	8           	140         	0           	Open  	;
 P-313           	J-33            	J-423           	374.22      	6           	40          	0           	Open  	;
 P-314           	J-210           	I-AV-99         	189         	6           	40          	0           	Open  	;
 P-315           	J-193           	J-424           	24.298      	6           	40          	0           	Open  	;
 P-316           	J-178           	J-425           	764.76      	6           	130         	0           	Open  	;
 P-317           	J-370           	J-339           	323.22      	8           	130         	0           	Open  	;
 P-318           	J-254           	J-426           	309.2       	6           	120         	0           	Open  	;
 P-319           	J-74            	I-AV-261        	112.58      	18          	70          	0           	Open  	;
 P-32            	J-59            	I-AV-202        	225.199     	8           	40          	0           	Open  	;
 P-320           	J-188           	I-AV-226        	206.99      	6           	40          	0           	Open  	;
 P-321           	J-341           	J-178           	265.928     	6           	130         	0           	Open  	;
 P-322           	J-427           	J-422           	499.5       	6           	140         	0           	Open  	;
 P-323           	J-428           	I-AV-371        	679.27      	8           	70          	0           	Open  	;
 P-324           	J-163           	I-AV-195        	637.33      	4           	40          	0           	Open  	;
 P-325           	J-42            	I-AV-454        	187.419     	6           	130         	0           	Open  	;
 P-326           	J-423           	J-429           	40.58       	10          	120         	0           	Open  	;
 P-327           	J-344           	J-185           	280.588     	6           	70          	0           	Open  	;
 P-328           	J-430           	I-AV-48         	225.779     	8           	130         	0           	Open  	;
 P-329           	J-431           	I-AV-256        	178.809     	6           	40          	0           	Open  	;
 P-33            	J-61            	I-AV-200        	207.41      	16          	40          	0           	Open  	;
 P-330           	J-277           	I-AV-290        	217.979     	6           	130         	0           	Open  	;
 P-331           	J-215           	I-AV-278        	194.99      	6           	40          	0           	Open  	;
 P-332           	J-434           	I-AV-175        	191.05      	6           	130         	0           	Open  	;
 P-333           	J-435           	J-436           	107.918     	2           	130         	0           	Open  	;
 P-334           	J-433           	J-174           	223.169     	6           	130         	0           	Open  	;
 P-335           	J-437           	I-AV-277        	545.468     	6           	120         	0           	Open  	;
 P-336           	J-438           	I-AV-18         	167.27      	8           	130         	0           	Open  	;
 P-337           	J-25            	I-AV-110        	186.32      	6           	40          	0           	Open  	;
 P-338           	J-439           	I-AV-327        	303.859     	6           	40          	0           	Open  	;
 P-339           	J-366           	J-423           	408.868     	10          	120         	0           	Open  	;
 P-34            	J-63            	I-AV-157        	259.95      	6           	130         	0           	Open  	;
 P-340           	J-398           	I-AV-102        	189.679     	10          	120         	0           	Open  	;
 P-341           	J-441           	J-442           	104.47      	2           	130         	0           	Open  	;
 P-342           	J-443           	J-444           	1103.578    	6           	130         	0           	Open  	;
 P-343           	J-445           	J-32            	342.98      	2           	130         	0           	Open  	;
 P-344           	J-446           	I-AV-461        	186.61      	8           	130         	0           	Open  	;
 P-345           	J-447           	J-448           	709.09      	6           	40          	0           	Open  	;
 P-346           	J-449           	I-AV-398        	636.2       	6           	120         	0           	Open  	;
 P-347           	J-450           	J-451           	330.32      	4           	100         	0           	Open  	;
 P-348           	J-451           	I-AV-285        	298.13      	2           	130         	0           	Open  	;
 P-349           	J-248           	I-AV-46         	195.94      	6           	140         	0           	Open  	;
 P-35            	J-65            	J-66            	470.57      	4           	100         	0           	Open  	;
 P-350           	J-454           	J-724           	274.67      	8           	130         	0           	Open  	;
 P-351           	J-456           	J-457           	188.169     	8           	130         	0           	Open  	;
 P-352           	J-458           	I-AV-33         	182.009     	6           	130         	0           	Open  	;
 P-353           	J-459           	J-270           	84.41       	6           	130         	0           	Open  	;
 P-354           	J-191           	J-248           	536.59      	6           	140         	0           	Open  	;
 P-355           	J-259           	J-441           	695.96      	6           	40          	0           	Open  	;
 P-356           	J-307           	I-AV-34         	253         	6           	130         	0           	Open  	;
 P-357           	J-173           	J-249           	250.69      	6           	140         	0           	Open  	;
 P-358           	J-205           	I-AV-72         	177.509     	12          	40          	0           	Open  	;
 P-359           	J-441           	I-AV-324        	183.309     	6           	40          	0           	Open  	;
 P-36            	J-28            	I-AV-340        	402.57      	6           	40          	0           	Open  	;
 P-360           	J-407           	J-431           	515.239     	6           	40          	0           	Open  	;
 P-361           	J-232           	J-155           	908.559     	6           	130         	0           	Open  	;
 P-362           	J-264           	J-21            	205.25      	12          	130         	0           	Open  	;
 P-363           	J-35            	I-AV-144        	197.16      	6           	130         	0           	Open  	;
 P-364           	J-463           	I-AV-237        	210.089     	12          	130         	0           	Open  	;
 P-365           	J-464           	J-155           	353.41      	6           	120         	0           	Open  	;
 P-366           	J-465           	I-AV-91         	209.35      	6           	40          	0           	Open  	;
 P-367           	J-467           	I-AV-177        	253.919     	6           	40          	0           	Open  	;
 P-368           	J-469           	I-AV-247        	179.479     	4           	40          	0           	Open  	;
 P-369           	J-471           	I-AV-367        	293.989     	6           	70          	0           	Open  	;
 P-37            	J-68            	J-69            	679.02      	4           	40          	0           	Open  	;
 P-370           	J-472           	J-17            	2070.979    	8           	140         	0           	Open  	;
 P-371           	J-421           	I-AV-426        	190.88      	8           	120         	0           	Open  	;
 P-372           	J-249           	J-473           	287.44      	6           	140         	0           	Open  	;
 P-373           	J-223           	J-474           	633.08      	6           	40          	0           	Open  	;
 P-374           	J-475           	J-476           	2398.678    	8           	130         	0           	Open  	;
 P-375           	J-477           	J-478           	926.218     	6           	130         	0           	Open  	;
 P-376           	J-221           	I-AV-43         	87.168      	6           	140         	0           	Open  	;
 P-377           	J-79            	J-479           	482.329     	4           	100         	0           	Open  	;
 P-378           	J-179           	I-AV-31         	194.77      	6           	130         	0           	Open  	;
 P-379           	J-306           	I-AV-309        	195.919     	6           	120         	0           	Open  	;
 P-38            	J-70            	J-60            	395.489     	6           	40          	0           	Open  	;
 P-380           	J-470           	I-AV-248        	450.73      	4           	40          	0           	Open  	;
 P-381           	J-480           	I-AV-138        	177.75      	8           	120         	0           	Open  	;
 P-382           	J-482           	J-314           	122.838     	8           	40          	0           	Open  	;
 P-383           	J-740           	J-742           	834.369     	6           	130         	0           	Open  	;
 P-384           	J-485           	J-399           	407.48      	8           	140         	0           	Open  	;
 P-385           	J-486           	J-31            	367.549     	6           	120         	0           	Open  	;
 P-386           	J-487           	I-AV-415        	220.21      	10          	120         	0           	Open  	;
 P-387           	J-486           	I-AV-323        	221.899     	6           	120         	0           	Open  	;
 P-388           	J-324           	I-AV-268        	180.05      	6           	120         	0           	Open  	;
 P-389           	J-139           	J-148           	168.259     	4           	100         	0           	Open  	;
 P-39            	J-55            	I-AV-445        	220.149     	8           	140         	0           	Open  	;
 P-390           	J-461           	I-AV-141        	221.809     	6           	130         	0           	Open  	;
 P-391           	J-229           	I-AV-232        	564.729     	6           	40          	0           	Open  	;
 P-392           	J-427           	J-491           	1199.3      	6           	140         	0           	Open  	;
 P-393           	J-489           	J-728           	238.479     	6           	130         	0           	Open  	;
 P-394           	J-487           	I-AV-417        	190.389     	12          	120         	0           	Open  	;
 P-395           	J-469           	J-494           	254.61      	6           	120         	0           	Open  	;
 P-396           	J-495           	I-AV-94         	193.02      	8           	120         	0           	Open  	;
 P-397           	J-23            	I-AV-3          	204.47      	6           	130         	0           	Open  	;
 P-398           	J-252           	I-AV-207        	187.399     	8           	40          	0           	Open  	;
 P-399           	J-497           	I-AV-231        	189.63      	6           	40          	0           	Open  	;
 P-4             	J-3             	J-7             	519.5       	6           	130         	0           	Open  	;
 P-40            	J-71            	I-AV-446        	206.139     	6           	140         	0           	Open  	;
 P-400           	J-498           	J-499           	53.7        	6           	120         	0           	Open  	;
 P-401           	J-428           	I-AV-358        	241.46      	6           	40          	0           	Open  	;
 P-402           	J-34            	J-222           	209.3       	6           	130         	0           	Open  	;
 P-403           	J-463           	J-363           	133.55      	12          	130         	0           	Open  	;
 P-404           	J-501           	J-406           	699.239     	6           	40          	0           	Open  	;
 P-405           	J-502           	I-AV-442        	210.009     	10          	130         	0           	Open  	;
 P-406           	J-287           	I-AV-439        	760.46      	4           	100         	0           	Open  	;
 P-407           	J-267           	I-AV-313        	204.649     	6           	40          	0           	Open  	;
 P-408           	J-503           	I-AV-96         	338.66      	4           	40          	0           	Open  	;
 P-409           	J-325           	I-AV-266        	197.99      	8           	120         	0           	Open  	;
 P-41            	J-73            	J-74            	31.02       	18          	70          	0           	Open  	;
 P-410           	J-86            	J-504           	1017.13     	6           	140         	0           	Open  	;
 P-411           	J-387           	J-505           	488.32      	6           	120         	0           	Open  	;
 P-412           	J-358           	J-183           	253.339     	4           	100         	0           	Open  	;
 P-413           	J-417           	J-501           	263.558     	6           	40          	0           	Open  	;
 P-414           	J-495           	I-AV-241        	815.609     	6           	40          	0           	Open  	;
 P-415           	J-378           	J-506           	1624.598    	12          	120         	0           	Open  	;
 P-416           	J-381           	I-AV-54         	195.399     	6           	40          	0           	Open  	;
 P-417           	J-507           	J-330           	19.54       	6           	40          	0           	Open  	;
 P-418           	J-508           	J-498           	205.74      	2.5         	100         	0           	Open  	;
 P-419           	J-404           	J-405           	457.308     	4           	100         	0           	Open  	;
 P-42            	J-75            	J-391           	1262.5      	10          	130         	0           	Open  	;
 P-420           	J-37            	J-48            	82.11       	8           	140         	0           	Open  	;
 P-421           	J-509           	J-413           	701.539     	6           	40          	0           	Open  	;
 P-422           	J-464           	J-510           	821.789     	6           	130         	0           	Open  	;
 P-423           	J-77            	J-511           	558.25      	4           	40          	0           	Open  	;
 P-424           	J-278           	I-AV-318        	211.1       	6           	120         	0           	Open  	;
 P-425           	J-246           	J-268           	285.51      	6           	140         	0           	Open  	;
 P-426           	J-458           	J-270           	98.43       	6           	130         	0           	Open  	;
 P-427           	J-30            	J-322           	239.88      	12          	130         	0           	Open  	;
 P-428           	J-512           	J-513           	238.259     	6           	40          	0           	Open  	;
 P-429           	J-274           	J-514           	265.19      	10          	40          	0           	Open  	;
 P-43            	J-77            	J-78            	10.029      	6           	40          	0           	Open  	;
 P-430           	J-466           	I-AV-98         	217.539     	6           	40          	0           	Open  	;
 P-431           	J-515           	I-AV-59         	275.019     	8           	130         	0           	Open  	;
 P-432           	J-731           	J-732           	1.21        	18          	70          	0           	Open  	;
 P-433           	J-340           	J-517           	302         	6           	130         	0           	Open  	;
 P-434           	J-419           	J-518           	444.528     	8           	120         	0           	Open  	;
 P-435           	J-349           	J-519           	28.94       	10          	120         	0           	Open  	;
 P-436           	J-440           	I-AV-92         	222.169     	8           	130         	0           	Open  	;
 P-437           	J-227           	I-AV-244        	268.19      	10          	130         	0           	Open  	;
 P-438           	J-317           	I-AV-438        	408.51      	10          	120         	0           	Open  	;
 P-439           	J-513           	J-290           	468.23      	6           	40          	0           	Open  	;
 P-44            	J-79            	J-80            	355.41      	4           	100         	0           	Open  	;
 P-440           	J-280           	J-100           	33.659      	6           	120         	0           	Open  	;
 P-441           	J-333           	J-746           	1148.718    	12          	130         	0           	Open  	;
 P-442           	J-90            	J-510           	371.89      	6           	120         	0           	Open  	;
 P-443           	J-521           	J-729           	491.269     	6           	140         	0           	Open  	;
 P-444           	J-521           	I-AV-378        	192.669     	1           	130         	0           	Open  	;
 P-445           	J-524           	I-AV-447        	212.47      	16          	130         	0           	Open  	;
 P-446           	J-525           	J-526           	660         	16          	130         	0           	Open  	;
 P-447           	J-448           	J-527           	287.058     	6           	40          	0           	Open  	;
 P-448           	J-528           	J-529           	5821.508    	3           	140         	0           	Open  	;
 P-449           	J-169           	I-AV-387        	321.338     	1.25        	130         	0           	Open  	;
 P-45            	J-81            	I-AV-68         	219.369     	2           	40          	0           	Open  	;
 P-450           	J-530           	J-504           	378.07      	6           	140         	0           	Open  	;
 P-451           	J-384           	I-AV-434        	253.059     	6           	120         	0           	Open  	;
 P-452           	J-452           	J-445           	116.768     	4           	100         	0           	Open  	;
 P-453           	J-347           	J-148           	276.049     	4           	100         	0           	Open  	;
 P-454           	J-420           	J-90            	837.39      	6           	130         	0           	Open  	;
 P-455           	J-531           	J-437           	75.19       	6           	120         	0           	Open  	;
 P-456           	J-532           	J-533           	359.269     	4           	40          	0           	Open  	;
 P-457           	J-448           	I-AV-351        	252.429     	6           	40          	0           	Open  	;
 P-458           	J-388           	J-534           	534.71      	6           	130         	0           	Open  	;
 P-459           	J-112           	J-535           	17435.359   	6           	140         	0           	Open  	;
 P-46            	J-83            	J-84            	790.098     	4           	100         	0           	Open  	;
 P-460           	J-4             	J-531           	105.11      	6           	120         	0           	Open  	;
 P-461           	J-536           	J-537           	929.479     	2           	100         	0           	Open  	;
 P-462           	J-532           	J-445           	367.91      	4           	40          	0           	Open  	;
 P-463           	J-538           	J-539           	618.348     	6           	130         	0           	Open  	;
 P-464           	J-540           	J-541           	195.72      	1.5         	140         	0           	Open  	;
 P-465           	J-531           	I-AV-276        	207.35      	6           	120         	0           	Open  	;
 P-466           	J-542           	I-AV-458        	194.36      	6           	130         	0           	Open  	;
 P-467           	J-525           	I-AV-4          	220.509     	12          	130         	0           	Open  	;
 P-468           	J-544           	I-AV-407        	183.57      	6           	140         	0           	Open  	;
 P-469           	J-533           	J-545           	449.13      	4           	40          	0           	Open  	;
 P-47            	J-85            	J-86            	480.89      	6           	120         	0           	Open  	;
 P-470           	J-546           	I-AV-354        	203.08      	6           	140         	0           	Open  	;
 P-471           	J-503           	I-AV-118        	222.21      	6           	40          	0           	Open  	;
 P-472           	J-356           	I-AV-24         	166.229     	8           	130         	0           	Open  	;
 P-473           	J-38            	J-547           	509.308     	8           	130         	0           	Open  	;
 P-474           	J-325           	O-AV-265        	220.8       	6           	120         	0           	Open  	;
 P-475           	J-494           	I-AV-267        	618.169     	6           	120         	0           	Open  	;
 P-476           	J-548           	J-549           	190.919     	6           	40          	0           	Open  	;
 P-477           	J-200           	J-550           	80.51       	4           	100         	0           	Open  	;
 P-478           	J-63            	J-551           	101.83      	6           	130         	0           	Open  	;
 P-479           	J-367           	I-AV-87         	192.789     	6           	40          	0           	Open  	;
 P-48            	J-87            	J-88            	455.39      	6           	40          	0           	Open  	;
 P-480           	J-196           	I-AV-240        	236.36      	6           	40          	0           	Open  	;
 P-481           	J-465           	I-AV-93         	170.57      	6           	40          	0           	Open  	;
 P-482           	J-381           	I-AV-55         	200.47      	10          	120         	0           	Open  	;
 P-483           	J-75            	J-153           	263.22      	10          	130         	0           	Open  	;
 P-484           	J-416           	J-19            	275.04      	6           	40          	0           	Open  	;
 P-485           	J-465           	I-AV-89         	825.039     	6           	40          	0           	Open  	;
 P-486           	J-198           	J-449           	519.46      	6           	120         	0           	Open  	;
 P-487           	J-474           	I-AV-95         	263.648     	6           	40          	0           	Open  	;
 P-488           	J-554           	I-AV-73         	177.619     	10          	70          	0           	Open  	;
 P-489           	J-466           	J-210           	340.23      	6           	40          	0           	Open  	;
 P-49            	J-89            	J-90            	445.278     	6           	120         	0           	Open  	;
 P-490           	J-102           	J-55            	425.459     	8           	140         	0           	Open  	;
 P-491           	J-556           	J-557           	1118.109    	6           	140         	0           	Open  	;
 P-492           	J-299           	I-AV-288        	195.6       	6           	40          	0           	Open  	;
 P-493           	J-488           	I-AV-413        	215.36      	8           	120         	0           	Open  	;
 P-494           	J-4             	J-437           	181.72      	2           	130         	0           	Open  	;
 P-495           	J-493           	J-559           	829.289     	12          	120         	0           	Open  	;
 P-496           	J-560           	J-85            	431.01      	6           	120         	0           	Open  	;
 P-497           	J-561           	J-562           	294.898     	0.75        	130         	0           	Open  	;
 P-498           	J-558           	J-493           	547.28      	8           	120         	0           	Open  	;
 P-499           	J-563           	I-AV-211        	183.839     	10          	70          	0           	Open  	;
 P-5             	J-8             	J-3             	462.91      	2           	130         	0           	Open  	;
 P-50            	J-91            	I-AV-260        	215.02      	6           	130         	0           	Open  	;
 P-500           	J-334           	J-565           	115.01      	4           	100         	0           	Open  	;
 P-501           	J-10            	J-528           	1429.41     	6           	140         	0           	Open  	;
 P-502           	J-566           	J-567           	441.14      	6           	130         	0           	Open  	;
 P-503           	J-568           	J-569           	792.83      	6           	130         	0           	Open  	;
 P-504           	J-570           	I-AV-178        	191.679     	6           	40          	0           	Open  	;
 P-505           	J-18            	J-572           	266.398     	6           	140         	0           	Open  	;
 P-506           	J-573           	J-186           	478.579     	12          	40          	0           	Open  	;
 P-507           	J-116           	J-574           	108.878     	6           	40          	0           	Open  	;
 P-508           	J-233           	I-AV-160        	178.389     	6           	120         	0           	Open  	;
 P-509           	J-10            	J-576           	10454.29    	8           	140         	0           	Open  	;
 P-51            	J-92            	J-93            	366.38      	8           	130         	0           	Open  	;
 P-510           	J-200           	J-313           	70.12       	6           	120         	0           	Open  	;
 P-511           	J-360           	J-577           	361.088     	4           	100         	0           	Open  	;
 P-512           	J-85            	J-578           	1127.938    	6           	130         	0           	Open  	;
 P-513           	J-579           	J-213           	623.46      	6           	40          	0           	Open  	;
 P-514           	J-355           	I-AV-105        	445.609     	4           	100         	0           	Open  	;
 P-515           	J-564           	J-580           	287.19      	10          	70          	0           	Open  	;
 P-516           	J-762           	J-678           	812.9       	16          	130         	0           	Open  	;
 P-517           	J-346           	I-AV-222        	209.63      	6           	120         	0           	Open  	;
 P-518           	J-501           	J-188           	263.1       	4           	40          	0           	Open  	;
 P-519           	J-149           	J-83            	308.72      	4           	100         	0           	Open  	;
 P-52            	J-94            	I-AV-216        	191.779     	10          	40          	0           	Open  	;
 P-520           	J-334           	J-582           	792.979     	4           	100         	0           	Open  	;
 P-521           	J-583           	I-AV-147        	195.74      	6           	120         	0           	Open  	;
 P-522           	J-11            	I-AV-315        	187.16      	6           	120         	0           	Open  	;
 P-523           	J-585           	J-322           	263         	8           	130         	0           	Open  	;
 P-524           	J-263           	I-AV-158        	382.868     	6           	120         	0           	Open  	;
 P-525           	J-24            	I-AV-225        	185.16      	6           	40          	0           	Open  	;
 P-526           	J-84            	I-AV-104        	102.66      	6           	40          	0           	Open  	;
 P-527           	J-587           	J-355           	81.069      	4           	100         	0           	Open  	;
 P-528           	J-588           	I-AV-137        	255.24      	8           	120         	0           	Open  	;
 P-529           	J-480           	I-AV-134        	326.148     	8           	120         	0           	Open  	;
 P-53            	J-96            	J-97            	145.839     	10          	120         	0           	Open  	;
 P-530           	J-583           	J-342           	490.66      	6           	140         	0           	Open  	;
 P-531           	J-589           	I-AV-182        	214.429     	2           	130         	0           	Open  	;
 P-532           	J-591           	I-AV-424        	579.669     	8           	120         	0           	Open  	;
 P-533           	J-593           	I-AV-151        	213.16      	6           	40          	0           	Open  	;
 P-534           	J-114           	J-591           	299.47      	8           	120         	0           	Open  	;
 P-535           	J-594           	J-595           	277.428     	1.5         	130         	0           	Open  	;
 P-536           	J-455           	J-738           	334.04      	8           	130         	0           	Open  	;
 P-537           	J-43            	I-AV-50         	116.268     	4           	70          	0           	Open  	;
 P-538           	J-82            	I-AV-69         	195.02      	12          	40          	0           	Open  	;
 P-539           	J-594           	I-AV-139        	384.19      	6           	130         	0           	Open  	;
 P-54            	J-98            	I-AV-170        	447.54      	6           	120         	0           	Open  	;
 P-540           	J-207           	J-54            	139.039     	6           	40          	0           	Open  	;
 P-541           	J-201           	J-165           	269         	6           	43          	0           	Open  	;
 P-542           	J-286           	J-577           	279.329     	4           	100         	0           	Open  	;
 P-543           	J-491           	J-598           	329.26      	6           	140         	0           	Open  	;
 P-544           	J-599           	J-600           	615.15      	6           	40          	0           	Open  	;
 P-545           	J-371           	J-601           	333.29      	4           	100         	0           	Open  	;
 P-546           	J-602           	I-AV-174        	502.618     	6           	40          	0           	Open  	;
 P-547           	J-572           	J-737           	247.3       	6           	140         	0           	Open  	;
 P-548           	J-603           	I-AV-38         	57.008      	6           	130         	0           	Open  	;
 P-549           	J-605           	J-606           	420.109     	6           	40          	0           	Open  	;
 P-55            	J-100           	J-101           	201.19      	6           	120         	0           	Open  	;
 P-550           	J-607           	I-AV-154        	234.72      	6           	120         	0           	Open  	;
 P-551           	J-97            	I-AV-51         	564.02      	10          	120         	0           	Open  	;
 P-552           	J-432           	J-609           	76.058      	6           	40          	0           	Open  	;
 P-553           	J-123           	I-AV-363        	215.809     	6           	70          	0           	Open  	;
 P-554           	J-366           	I-AV-408        	211.38      	8           	120         	0           	Open  	;
 P-555           	J-319           	I-AV-316        	35.918      	6           	120         	0           	Open  	;
 P-556           	J-320           	I-AV-330        	33.54       	16          	130         	0           	Open  	;
 P-557           	J-520           	I-AV-401        	205.6       	6           	120         	0           	Open  	;
 P-558           	J-420           	J-464           	376.76      	6           	120         	0           	Open  	;
 P-559           	J-470           	I-AV-246        	197.85      	4           	40          	0           	Open  	;
 P-56            	J-102           	J-103           	1249.359    	6           	130         	0           	Open  	;
 P-560           	J-262           	I-AV-149        	204.58      	6           	120         	0           	Open  	;
 P-561           	J-305           	I-AV-78         	177.85      	12          	120         	0           	Open  	;
 P-562           	J-732           	J-612           	479.299     	10          	70          	0           	Open  	;
 P-563           	J-323           	I-AV-430        	1358.369    	12          	130         	0           	Open  	;
 P-564           	J-373           	I-AV-262        	180.49      	16          	70          	0           	Open  	;
 P-565           	J-613           	J-614           	566.33      	6           	140         	0           	Open  	;
 P-566           	J-592           	I-AV-416        	320.088     	8           	120         	0           	Open  	;
 P-567           	J-597           	I-AV-65         	523.15      	6           	40          	0           	Open  	;
 P-568           	J-582           	J-287           	304.338     	6           	120         	0           	Open  	;
 P-569           	J-407           	J-23            	368.72      	6           	40          	0           	Open  	;
 P-57            	J-104           	J-105           	37.95       	6           	40          	0           	Open  	;
 P-570           	J-377           	I-AV-116        	177.889     	6           	40          	0           	Open  	;
 P-571           	J-78            	J-467           	145.6       	6           	40          	0           	Open  	;
 P-572           	J-370           	J-438           	1780.79     	10          	130         	0           	Open  	;
 P-573           	J-222           	I-AV-331        	376.29      	6           	40          	0           	Open  	;
 P-574           	J-496           	I-AV-234        	210.41      	12          	130         	0           	Open  	;
 P-575           	J-615           	J-304           	210.029     	6           	40          	0           	Open  	;
 P-576           	J-616           	J-407           	15.34       	6           	40          	0           	Open  	;
 P-577           	J-511           	J-617           	278.07      	4           	40          	0           	Open  	;
 P-578           	J-422           	J-613           	385.22      	6           	140         	0           	Open  	;
 P-579           	J-618           	I-AV-336        	193.16      	10          	40          	0           	Open  	;
 P-58            	J-92            	J-106           	3506.198    	6           	140         	0           	Open  	;
 P-580           	J-191           	J-473           	796.539     	6           	140         	0           	Open  	;
 P-581           	J-27            	I-AV-343        	414.398     	8           	40          	0           	Open  	;
 P-582           	J-496           	I-AV-235        	196.8       	8           	40          	0           	Open  	;
 P-583           	J-253           	I-AV-239        	188.809     	6           	40          	0           	Open  	;
 P-584           	J-86            	J-170           	708.809     	6           	120         	0           	Open  	;
 P-585           	J-504           	J-578           	714.7       	6           	140         	0           	Open  	;
 P-586           	J-620           	I-AV-421        	187.369     	2           	130         	0           	Open  	;
 P-587           	J-575           	J-607           	234.649     	6           	120         	0           	Open  	;
 P-588           	J-491           	J-621           	603.799     	6           	140         	0           	Open  	;
 P-589           	J-622           	J-78            	337.808     	4           	100         	0           	Open  	;
 P-59            	J-107           	I-AV-258        	200.25      	18          	70          	0           	Open  	;
 P-590           	J-596           	I-AV-391        	261.38      	12          	130         	0           	Open  	;
 P-591           	J-332           	I-AV-392        	197.309     	12          	130         	0           	Open  	;
 P-592           	J-273           	O-AV-75         	176.5       	6           	140         	0           	Open  	;
 P-593           	J-624           	J-241           	75.168      	6           	140         	0           	Open  	;
 P-594           	J-605           	J-514           	602.33      	6           	40          	0           	Open  	;
 P-595           	J-72            	J-41            	277.5       	6           	140         	0           	Open  	;
 P-596           	J-625           	I-AV-329        	190.38      	10          	40          	0           	Open  	;
 P-597           	J-623           	I-AV-394        	197.929     	12          	130         	0           	Open  	;
 P-598           	J-296           	J-271           	52.36       	8           	140         	0           	Open  	;
 P-599           	J-268           	J-627           	71.72       	6           	140         	0           	Open  	;
 P-6             	J-9             	I-AV-376        	188.289     	8           	140         	0           	Open  	;
 P-60            	J-56            	I-AV-444        	258.42      	8           	140         	0           	Open  	;
 P-600           	J-53            	I-AV-204        	156.389     	6           	40          	0           	Open  	;
 P-601           	J-304           	I-AV-64         	174.369     	6           	40          	0           	Open  	;
 P-602           	J-206           	I-AV-66         	193.86      	6           	40          	0           	Open  	;
 P-603           	J-473           	J-246           	299.428     	6           	140         	0           	Open  	;
 P-604           	J-430           	I-AV-70         	328.13      	6           	130         	0           	Open  	;
 P-605           	J-39            	J-603           	126.68      	6           	130         	0           	Open  	;
 P-606           	J-629           	I-AV-298        	205.589     	6           	120         	0           	Open  	;
 P-607           	J-552           	I-AV-90         	420.489     	6           	40          	0           	Open  	;
 P-608           	J-142           	I-AV-150        	643.2       	2           	130         	0           	Open  	;
 P-609           	J-94            	I-AV-215        	187.77      	2           	40          	0           	Open  	;
 P-61            	J-56            	J-109           	418.579     	3           	140         	0           	Open  	;
 P-610           	J-468           	J-484           	418.808     	6           	40          	0           	Open  	;
 P-611           	J-632           	J-560           	746.84      	3           	100         	0           	Open  	;
 P-612           	J-622           	J-633           	772         	2           	130         	0           	Open  	;
 P-613           	J-593           	J-602           	445.14      	6           	130         	0           	Open  	;
 P-614           	J-73            	I-AV-263        	200.179     	8           	140         	0           	Open  	;
 P-615           	J-394           	I-AV-218        	175.529     	12          	40          	0           	Open  	;
 P-616           	J-635           	J-605           	265.528     	6           	40          	0           	Open  	;
 P-617           	J-554           	J-82            	175.089     	12          	70          	0           	Open  	;
 P-618           	J-468           	I-AV-176        	199.99      	6           	130         	0           	Open  	;
 P-619           	J-642           	I-AV-251        	200.289     	12          	40          	0           	Open  	;
 P-62            	J-110           	I-AV-450        	99.768      	6           	130         	0           	Open  	;
 P-620           	J-446           	I-AV-465        	214.199     	6           	130         	0           	Open  	;
 P-621           	J-53            	I-AV-205        	158.509     	10          	40          	0           	Open  	;
 P-622           	J-636           	I-AV-120        	123.62      	16          	130         	0           	Open  	;
 P-623           	J-616           	I-AV-249        	207.279     	6           	40          	0           	Open  	;
 P-624           	J-283           	I-AV-366        	203.97      	6           	130         	0           	Open  	;
 P-625           	J-158           	J-573           	73.958      	12          	130         	0           	Open  	;
 P-626           	J-311           	I-AV-16         	172.07      	8           	130         	0           	Open  	;
 P-627           	J-638           	J-447           	124.378     	6           	40          	0           	Open  	;
 P-628           	J-639           	J-216           	15.92       	6           	120         	0           	Open  	;
 P-629           	J-640           	I-AV-422        	450.329     	4           	100         	0           	Open  	;
 P-63            	J-76            	I-AV-466        	390.519     	6           	130         	0           	Open  	;
 P-630           	J-426           	J-641           	2360.188    	6           	120         	0           	Open  	;
 P-631           	J-586           	J-600           	692.64      	6           	40          	0           	Open  	;
 P-632           	J-589           	J-570           	17.659      	6           	40          	0           	Open  	;
 P-633           	J-310           	I-AV-337        	182.97      	8           	40          	0           	Open  	;
 P-634           	J-396           	I-AV-221        	1722.56     	12          	130         	0           	Open  	;
 P-635           	J-643           	J-644           	459.398     	8           	140         	0           	Open  	;
 P-636           	J-645           	J-644           	295.38      	6           	130         	0           	Open  	;
 P-637           	J-538           	I-AV-452        	182.289     	6           	130         	0           	Open  	;
 P-638           	J-647           	I-AV-457        	232.69      	6           	140         	0           	Open  	;
 P-639           	J-649           	I-AV-10         	256         	6           	130         	0           	Open  	;
 P-64            	J-114           	I-AV-433        	273.47      	4           	100         	0           	Open  	;
 P-640           	J-536           	J-651           	419.928     	2           	100         	0           	Open  	;
 P-641           	J-1             	J-321           	3516.09     	8           	140         	0           	Open  	;
 P-642           	J-653           	J-654           	698.45      	6           	130         	0           	Open  	;
 P-643           	J-279           	J-655           	120.768     	6           	40          	0           	Open  	;
 P-644           	J-161           	I-AV-148        	186.86      	6           	120         	0           	Open  	;
 P-645           	J-446           	I-AV-463        	189.589     	6           	130         	0           	Open  	;
 P-646           	J-645           	I-AV-453        	345.79      	6           	130         	0           	Open  	;
 P-647           	J-440           	J-92            	56.9        	8           	130         	0           	Open  	;
 P-648           	J-510           	J-303           	33.31       	6           	120         	0           	Open  	;
 P-649           	J-652           	J-658           	429.058     	8           	140         	0           	Open  	;
 P-65            	J-116           	J-77            	576.94      	6           	40          	0           	Open  	;
 P-650           	J-647           	I-AV-459        	510.799     	6           	130         	0           	Open  	;
 P-651           	J-133           	J-659           	4669.608    	6           	140         	0           	Open  	;
 P-652           	J-649           	J-660           	442.72      	6           	130         	0           	Open  	;
 P-653           	J-661           	J-594           	360.25      	6           	130         	0           	Open  	;
 P-654           	J-661           	J-662           	1050.979    	10          	130         	0           	Open  	;
 P-655           	J-650           	I-AV-11         	231.35      	6           	140         	0           	Open  	;
 P-656           	J-664           	J-753           	3422.29     	6           	140         	0           	Open  	;
 P-657           	J-665           	J-472           	339.088     	8           	140         	0           	Open  	;
 P-658           	J-354           	J-487           	673.039     	10          	120         	0           	Open  	;
 P-659           	J-497           	J-19            	7.988       	6           	40          	0           	Open  	;
 P-66            	J-96            	J-117           	89.19       	8           	120         	0           	Open  	;
 P-660           	J-77            	I-AV-171        	220.27      	6           	120         	0           	Open  	;
 P-661           	J-571           	J-631           	83.94       	6           	40          	0           	Open  	;
 P-662           	J-276           	J-666           	233.16      	12          	130         	0           	Open  	;
 P-663           	J-655           	I-AV-180        	218.49      	6           	40          	0           	Open  	;
 P-664           	J-566           	J-75            	190.119     	10          	130         	0           	Open  	;
 P-665           	J-516           	J-741           	516.94      	8           	200         	0           	Open  	;
 P-666           	J-334           	J-640           	571.71      	4           	100         	0           	Open  	;
 P-667           	J-131           	I-AV-127        	585.789     	4           	40          	0           	Open  	;
 P-668           	J-151           	J-439           	386.04      	6           	40          	0           	Open  	;
 P-669           	J-618           	I-AV-333        	193.979     	6           	40          	0           	Open  	;
 P-67            	J-118           	I-AV-128        	660.309     	6           	40          	0           	Open  	;
 P-670           	J-648           	I-AV-9          	205.619     	6           	140         	0           	Open  	;
 P-671           	J-66            	J-667           	35.069      	4           	100         	0           	Open  	;
 P-672           	J-352           	J-503           	483.209     	6           	40          	0           	Open  	;
 P-673           	J-301           	I-AV-136        	227.58      	12          	120         	0           	Open  	;
 P-674           	J-729           	J-522           	296.299     	6           	140         	0           	Open  	;
 P-675           	J-271           	J-643           	413.51      	8           	140         	0           	Open  	;
 P-676           	J-623           	I-AV-395        	223         	8           	130         	0           	Open  	;
 P-677           	J-424           	I-AV-83         	105.918     	6           	40          	0           	Open  	;
 P-678           	J-670           	J-671           	185.44      	6           	130         	0           	Open  	;
 P-679           	J-410           	I-AV-14         	1682.51     	8           	130         	0           	Open  	;
 P-68            	J-120           	I-AV-185        	206.21      	6           	130         	0           	Open  	;
 P-680           	J-673           	J-255           	88.26       	6           	140         	0           	Open  	;
 P-681           	J-533           	J-32            	360.709     	4           	40          	0           	Open  	;
 P-682           	J-312           	I-AV-464        	1426.119    	6           	155         	0           	Open  	;
 P-683           	J-530           	J-556           	218.639     	6           	140         	0           	Open  	;
 P-684           	J-603           	I-AV-36         	395.359     	6           	130         	0           	Open  	;
 P-685           	J-669           	J-674           	1323.77     	6           	40          	0           	Open  	;
 P-686           	J-631           	J-67            	525.408     	6           	40          	0           	Open  	;
 P-687           	J-462           	J-408           	483.088     	10          	130         	0           	Open  	;
 P-688           	J-20            	J-605           	388.588     	6           	40          	0           	Open  	;
 P-689           	J-318           	I-AV-320        	209.77      	4           	40          	0           	Open  	;
 P-69            	J-122           	I-AV-443        	1119.598    	6           	130         	0           	Open  	;
 P-690           	J-78            	I-AV-172        	211.309     	6           	40          	0           	Open  	;
 P-691           	J-450           	J-486           	27.19       	6           	120         	0           	Open  	;
 P-692           	J-509           	J-412           	271.898     	6           	40          	0           	Open  	;
 P-693           	J-675           	J-309           	407.73      	6           	40          	0           	Open  	;
 P-694           	J-31            	I-AV-282        	229.83      	6           	120         	0           	Open  	;
 P-695           	J-460           	I-AV-76         	295.63      	12          	40          	0           	Open  	;
 P-696           	J-676           	J-561           	17.138      	4           	100         	0           	Open  	;
 P-697           	J-309           	J-638           	66.668      	6           	40          	0           	Open  	;
 P-698           	J-413           	I-AV-126        	209.089     	6           	40          	0           	Open  	;
 P-699           	J-630           	I-AV-293        	247.119     	4           	100         	0           	Open  	;
 P-7             	J-11            	J-12            	260.32      	6           	40          	0           	Closed	;
 P-70            	J-123           	I-AV-365        	179.759     	6           	70          	0           	Open  	;
 P-700           	J-461           	I-AV-140        	210.899     	6           	130         	0           	Open  	;
 P-701           	J-553           	J-608           	677.09      	6           	130         	0           	Open  	;
 P-702           	J-252           	J-635           	607.359     	8           	40          	0           	Open  	;
 P-703           	J-679           	I-AV-49         	405.16      	6           	120         	0           	Open  	;
 P-704           	J-635           	J-274           	600.598     	10          	40          	0           	Open  	;
 P-705           	J-563           	I-AV-209        	179.11      	10          	40          	0           	Open  	;
 P-706           	J-152           	J-680           	1336.739    	6           	40          	0           	Open  	;
 P-707           	J-297           	I-AV-332        	142.33      	8           	40          	0           	Open  	;
 P-708           	J-243           	I-AV-173        	190.8       	6           	130         	0           	Open  	;
 P-709           	J-225           	I-AV-321        	221.929     	6           	120         	0           	Open  	;
 P-71            	J-125           	J-126           	1309.979    	6           	130         	0           	Open  	;
 P-710           	J-625           	J-258           	67.418      	8           	40          	0           	Open  	;
 P-711           	J-599           	I-AV-208        	170.649     	10          	40          	0           	Open  	;
 P-712           	J-682           	J-64            	126.62      	6           	130         	0           	Open  	;
 P-713           	J-575           	I-AV-155        	196.369     	6           	120         	0           	Open  	;
 P-714           	J-528           	J-751           	7087.2      	6           	140         	0           	Open  	;
 P-715           	J-684           	J-622           	62.84       	2           	130         	0           	Open  	;
 P-716           	J-574           	J-593           	219.559     	6           	130         	0           	Open  	;
 P-717           	J-47            	J-9             	324.89      	12          	130         	0           	Open  	;
 P-718           	J-683           	J-685           	87.018      	8           	140         	0           	Open  	;
 P-719           	J-460           	J-628           	327.799     	6           	130         	0           	Open  	;
 P-72            	J-127           	I-AV-193        	208.899     	6           	120         	0           	Open  	;
 P-720           	J-134           	J-114           	197.83      	4           	100         	0           	Open  	;
 P-721           	J-669           	I-AV-88         	368.989     	6           	40          	0           	Open  	;
 P-722           	J-557           	J-556           	1121.3      	6           	140         	0           	Open  	;
 P-723           	J-60            	J-182           	276.269     	8           	40          	0           	Open  	;
 P-724           	J-652           	J-752           	5982.588    	4           	140         	0           	Open  	;
 P-725           	J-687           	J-569           	350.678     	6           	130         	0           	Open  	;
 P-726           	J-658           	J-664           	1308.989    	8           	140         	0           	Open  	;
 P-727           	J-41            	J-647           	44.18       	6           	140         	0           	Open  	;
 P-728           	J-653           	J-375           	459.058     	10          	120         	0           	Open  	;
 P-729           	J-294           	I-AV-467        	349.239     	8           	200         	0           	Open  	;
 P-73            	J-129           	I-AV-187        	211.1       	6           	130         	0           	Open  	;
 P-730           	J-648           	I-AV-7          	220.339     	6           	130         	0           	Open  	;
 P-731           	J-244           	I-AV-304        	203.929     	6           	120         	0           	Open  	;
 P-732           	J-132           	J-509           	174.72      	6           	40          	0           	Open  	;
 P-733           	J-412           	I-AV-184        	690.679     	6           	40          	0           	Open  	;
 P-734           	J-675           	J-343           	512.4       	6           	70          	0           	Open  	;
 P-735           	J-688           	J-689           	457.428     	6           	40          	0           	Open  	;
 P-736           	J-689           	I-AV-335        	236.97      	6           	40          	0           	Open  	;
 P-737           	J-62            	I-AV-198        	210.55      	16          	120         	0           	Open  	;
 P-738           	J-688           	J-251           	234.05      	10          	40          	0           	Open  	;
 P-739           	J-225           	J-532           	240.199     	4           	40          	0           	Open  	;
 P-74            	J-131           	J-132           	91.238      	4           	40          	0           	Open  	;
 P-740           	J-61            	I-AV-341        	491.14      	8           	40          	0           	Open  	;
 P-741           	J-291           	I-AV-360        	214.899     	6           	40          	0           	Open  	;
 P-742           	J-689           	J-691           	400.299     	4           	40          	0           	Open  	;
 P-743           	J-514           	J-688           	140.13      	10          	40          	0           	Open  	;
 P-744           	J-658           	J-692           	4157.458    	4           	140         	0           	Open  	;
 P-745           	J-396           	J-44            	1320.568    	12          	130         	0           	Open  	;
 P-746           	J-412           	J-61            	8.39        	8           	40          	0           	Open  	;
 P-747           	J-693           	J-573           	951.33      	8           	70          	0           	Open  	;
 P-748           	J-105           	J-690           	269.19      	6           	40          	0           	Open  	;
 P-749           	J-224           	J-318           	171.5       	4           	100         	0           	Open  	;
 P-75            	J-133           	I-AV-432        	310.82      	8           	120         	0           	Open  	;
 P-750           	J-362           	I-AV-287        	384.778     	4           	40          	0           	Open  	;
 P-751           	J-390           	J-365           	913.14      	10          	120         	0           	Open  	;
 P-752           	J-64            	J-29            	291.42      	6           	130         	0           	Open  	;
 P-753           	J-282           	J-734           	218.179     	6           	40          	0           	Open  	;
 P-754           	J-227           	J-653           	188.75      	10          	120         	0           	Open  	;
 P-755           	J-687           	I-AV-28         	361.75      	6           	130         	0           	Open  	;
 P-756           	J-660           	J-694           	336.6       	6           	130         	0           	Open  	;
 P-757           	J-665           	I-AV-27         	178.91      	6           	130         	0           	Open  	;
 P-758           	J-670           	J-655           	279.148     	6           	130         	0           	Open  	;
 P-759           	J-664           	J-695           	4134.898    	8           	140         	0           	Open  	;
 P-76            	J-135           	I-AV-163        	186.669     	2           	100         	0           	Open  	;
 P-760           	J-549           	J-277           	305.778     	6           	40          	0           	Open  	;
 P-761           	J-32            	J-696           	114.338     	2           	130         	0           	Open  	;
 P-762           	J-629           	I-AV-299        	179.539     	6           	120         	0           	Open  	;
 P-763           	J-156           	J-315           	262.2       	6           	130         	0           	Open  	;
 P-764           	J-697           	J-199           	595.979     	6           	130         	0           	Open  	;
 P-765           	J-67            	J-87            	504.959     	6           	40          	0           	Open  	;
 P-766           	J-132           	J-670           	317.588     	6           	130         	0           	Open  	;
 P-767           	J-666           	J-374           	1348.938    	10          	130         	0           	Open  	;
 P-768           	J-678           	I-AV-425        	301.51      	16          	130         	0           	Open  	;
 P-769           	J-445           	J-676           	315.48      	4           	100         	0           	Open  	;
 P-77            	J-137           	J-138           	580.239     	6           	130         	0           	Open  	;
 P-770           	J-54            	I-AV-206        	200.149     	8           	40          	0           	Open  	;
 P-771           	J-451           	J-224           	431.6       	4           	100         	0           	Open  	;
 P-772           	J-526           	J-226           	2056.968    	16          	130         	0           	Open  	;
 P-773           	J-345           	J-479           	707.429     	6           	120         	0           	Open  	;
 P-774           	J-597           	J-238           	281.95      	6           	120         	0           	Open  	;
 P-775           	J-300           	I-AV-132        	212.08      	6           	130         	0           	Open  	;
 P-776           	J-479           	J-348           	171.429     	6           	120         	0           	Open  	;
 P-777           	J-512           	I-AV-352        	184.07      	6           	40          	0           	Open  	;
 P-778           	J-630           	I-AV-295        	203.869     	6           	120         	0           	Open  	;
 P-779           	J-672           	I-AV-21         	1086.229    	8           	130         	0           	Open  	;
 P-78            	J-139           	J-140           	401.42      	4           	100         	0           	Open  	;
 P-780           	J-698           	J-699           	900.348     	8           	130         	0           	Open  	;
 P-781           	J-698           	J-164           	153.449     	16          	130         	0           	Open  	;
 P-782           	J-700           	J-110           	496.25      	6           	130         	0           	Open  	;
 P-783           	J-111           	I-AV-29         	316.359     	6           	130         	0           	Open  	;
 P-784           	J-234           	I-AV-20         	192.759     	8           	130         	0           	Open  	;
 P-785           	J-321           	J-634           	9531.668    	8           	140         	0           	Open  	;
 P-786           	J-701           	J-702           	93.378      	6           	70          	0           	Open  	;
 P-787           	J-302           	J-46            	1837.3      	12          	130         	0           	Open  	;
 P-788           	J-672           	I-AV-13         	192.399     	8           	130         	0           	Open  	;
 P-789           	J-645           	J-703           	137.479     	6           	130         	0           	Open  	;
 P-79            	J-141           	J-142           	1069.31     	2           	130         	0           	Open  	;
 P-790           	J-704           	J-705           	213.639     	6           	40          	0           	Open  	;
 P-791           	J-291           	J-500           	503.269     	4           	40          	0           	Open  	;
 P-792           	J-524           	I-AV-436        	168.99      	16          	130         	0           	Open  	;
 P-793           	J-706           	I-AV-274        	177.139     	6           	70          	0           	Open  	;
 P-794           	J-290           	I-AV-362        	204.83      	8           	40          	0           	Open  	;
 P-795           	J-211           	J-288           	367.558     	10          	70          	0           	Open  	;
 P-796           	J-527           	J-546           	575.59      	6           	40          	0           	Open  	;
 P-797           	J-706           	J-211           	343.6       	10          	70          	0           	Open  	;
 P-798           	J-634           	J-652           	6733.62     	8           	140         	0           	Open  	;
 P-799           	J-704           	J-707           	256.368     	6           	130         	0           	Open  	;
 P-8             	J-13            	J-14            	362.308     	8           	120         	0           	Open  	;
 P-80            	J-143           	I-AV-427        	1162.369    	10          	120         	0           	Open  	;
 P-800           	J-638           	J-471           	859.89      	6           	70          	0           	Open  	;
 P-801           	J-580           	I-AV-224        	370.528     	10          	70          	0           	Open  	;
 P-802           	J-202           	I-AV-372        	225.13      	8           	70          	0           	Open  	;
 P-803           	J-708           	I-AV-220        	181.419     	10          	70          	0           	Open  	;
 P-804           	J-500           	J-47            	18.218      	4           	40          	0           	Open  	;
 P-805           	J-185           	J-701           	1266.39     	6           	70          	0           	Open  	;
 P-806           	J-24            	J-704           	143.3       	6           	40          	0           	Open  	;
 P-807           	J-58            	I-AV-357        	206.039     	8           	40          	0           	Open  	;
 P-808           	J-395           	I-AV-219        	424.79      	10          	40          	0           	Open  	;
 P-809           	J-709           	J-708           	7.26        	10          	40          	0           	Open  	;
 P-81            	J-144           	J-145           	186.089     	6           	130         	0           	Open  	;
 P-810           	J-705           	I-AV-252        	480.82      	6           	40          	0           	Open  	;
 P-811           	J-709           	I-AV-223        	176.97      	10          	70          	0           	Open  	;
 P-812           	J-701           	I-AV-373        	189.639     	6           	70          	0           	Open  	;
 P-813           	J-710           	J-8             	203.889     	2           	130         	0           	Open  	;
 P-814           	J-678           	J-711           	710.45      	6           	130         	0           	Open  	;
 P-815           	J-542           	J-1             	2172.86     	12          	130         	0           	Open  	;
 P-816           	J-333           	I-AV-381        	218.229     	8           	130         	0           	Open  	;
 P-817           	J-557           	J-176           	434.808     	6           	140         	0           	Open  	;
 P-818           	J-712           	I-AV-297        	203.27      	6           	120         	0           	Open  	;
 P-819           	J-644           	J-744           	643.158     	8           	140         	0           	Open  	;
 P-82            	J-22            	I-AV-146        	211.449     	6           	130         	0           	Open  	;
 P-820           	J-743           	I-AV-406        	194.46      	6           	140         	0           	Open  	;
 P-821           	J-399           	J-443           	335.359     	8           	140         	0           	Open  	;
 P-822           	J-391           	J-555           	863.419     	10          	130         	0           	Open  	;
 P-823           	J-740           	J-555           	229.119     	6           	130         	0           	Open  	;
 P-824           	J-192           	I-AV-56         	198.619     	6           	120         	0           	Open  	;
 P-825           	J-493           	I-AV-130        	239.539     	2           	100         	0           	Open  	;
 P-826           	J-559           	I-AV-133        	460.79      	12          	120         	0           	Open  	;
 P-827           	J-16            	J-718           	388.359     	2           	70          	0           	Open  	;
 P-828           	J-666           	J-719           	4374.6      	6           	130         	0           	Open  	;
 P-829           	J-15            	J-720           	384.23      	2           	70          	0           	Open  	;
 P-83            	J-130           	J-147           	254.94      	6           	130         	0           	Open  	;
 P-830           	J-317           	J-37            	463.088     	8           	140         	0           	Open  	;
 P-831           	J-424           	I-AV-57         	195.679     	6           	40          	0           	Open  	;
 P-832           	J-739           	J-554           	299.39      	10          	70          	0           	Open  	;
 P-833           	J-385           	I-AV-275        	191.389     	6           	120         	0           	Open  	;
 P-834           	J-713           	I-AV-52         	199.889     	10          	120         	0           	Open  	;
 P-835           	J-721           	J-723           	28.37       	10          	120         	0           	Open  	;
 P-836           	J-739           	J-726           	14.05       	10          	120         	0           	Open  	;
 P-837           	J-33            	J-721           	401.959     	6           	40          	0           	Open  	;
 P-838           	J-722           	I-AV-60         	186.369     	6           	40          	0           	Open  	;
 P-839           	J-723           	I-AV-62         	217.279     	10          	120         	0           	Open  	;
 P-84            	J-101           	I-AV-192        	203.88      	6           	120         	0           	Open  	;
 P-840           	J-723           	I-AV-63         	195.729     	10          	120         	0           	Open  	;
 P-841           	J-726           	I-AV-84         	253.85      	10          	120         	0           	Open  	;
 P-842           	J-669           	J-159           	140.979     	6           	40          	0           	Open  	;
 P-843           	J-608           	J-461           	342.32      	6           	130         	0           	Open  	;
 P-844           	J-619           	J-567           	279.368     	6           	40          	0           	Open  	;
 P-845           	J-724           	J-733           	571.609     	8           	130         	0           	Open  	;
 P-846           	J-728           	J-492           	34.438      	6           	120         	0           	Open  	;
 P-847           	J-728           	I-AV-284        	218.24      	4           	100         	0           	Open  	;
 P-848           	J-280           	I-AV-189        	435.79      	6           	120         	0           	Open  	;
 P-849           	J-730           	J-112           	11974.86    	8           	140         	0           	Open  	;
 P-85            	J-148           	J-149           	513.88      	4           	100         	0           	Open  	;
 P-850           	J-729           	I-AV-377        	191.74      	8           	140         	0           	Open  	;
 P-851           	J-731           	O-Pump-2        	1.19        	12          	70          	0           	Open  	;
 P-852           	O-Pump-1        	J-731           	1.258       	12          	70          	0           	Open  	;
 P-853           	J-251           	J-483           	325.928     	10          	40          	0           	Open  	;
 P-854           	J-735           	I-Pump-1        	1.169       	12          	70          	0           	Open  	;
 P-855           	J-610           	O-AV-82         	619.468     	6           	40          	0           	Open  	;
 P-856           	R1              	J-735           	54.95       	18          	70          	0           	Open  	;
 P-857           	J-725           	J-221           	421.94      	6           	140         	0           	Open  	;
 P-858           	J-734           	J-736           	436.739     	6           	40          	0           	Open  	;
 P-859           	J-736           	J-675           	191.009     	6           	40          	0           	Open  	;
 P-86            	J-150           	I-AV-460        	228.86      	8           	140         	0           	Open  	;
 P-860           	J-733           	I-AV-388        	44.18       	8           	130         	0           	Open  	;
 P-861           	J-733           	J-167           	739.549     	12          	130         	0           	Open  	;
 P-862           	J-757           	I-Pump-3        	2.519       	10          	70          	0           	Open  	;
 P-863           	J-374           	J-566           	394.6       	10          	130         	0           	Open  	;
 P-864           	J-113           	I-AV-35         	603.669     	6           	140         	0           	Open  	;
 P-865           	J-727           	J-747           	9582.9      	8           	140         	0           	Open  	;
 P-866           	J-555           	J-516           	417.67      	8           	200         	0           	Open  	;
 P-867           	J-483           	I-AV-213        	144.369     	10          	40          	0           	Open  	;
 P-868           	J-484           	J-717           	315.118     	6           	40          	0           	Open  	;
 P-869           	J-50            	J-663           	1250.28     	6           	140         	0           	Open  	;
 P-87            	J-151           	I-AV-346        	849.049     	6           	40          	0           	Open  	;
 P-870           	J-740           	J-742           	1073.04     	6           	130         	0           	Open  	;
 P-871           	J-716           	J-76            	494.648     	6           	130         	0           	Open  	;
 P-872           	J-741           	J-715           	586.07      	10          	130         	0           	Open  	;
 P-873           	J-741           	J-742           	290.39      	6           	130         	0           	Open  	;
 P-874           	J-717           	I-AV-183        	393.82      	6           	40          	0           	Open  	;
 P-875           	J-760           	I-AV-455        	948.669     	6           	130         	0           	Open  	;
 P-876           	J-745           	I-AV-405        	219.11      	12          	130         	0           	Open  	;
 P-877           	J-743           	J-745           	18.54       	12          	130         	0           	Open  	;
 P-878           	J-744           	J-477           	158.47      	8           	140         	0           	Open  	;
 P-879           	J-477           	J-485           	90.12       	8           	140         	0           	Open  	;
 P-88            	J-146           	I-AV-135        	213.88      	6           	130         	0           	Open  	;
 P-880           	J-502           	J-476           	496.2       	8           	130         	0           	Open  	;
 P-881           	J-476           	J-456           	295.489     	8           	130         	0           	Open  	;
 P-882           	J-456           	J-585           	687.359     	8           	130         	0           	Open  	;
 P-883           	J-585           	J-475           	194.679     	8           	130         	0           	Open  	;
 P-884           	J-475           	J-714           	215.169     	8           	130         	0           	Open  	;
 P-885           	J-665           	J-443           	615.95      	8           	140         	0           	Open  	;
 P-886           	J-747           	J-10            	10986.62    	8           	140         	0           	Open  	;
 P-887           	J-745           	I-AV-379        	235.41      	12          	130         	0           	Open  	;
 P-888           	J-748           	J-750           	9243.888    	8           	140         	0           	Open  	;
 P-889           	J-540           	J-749           	157.229     	6           	140         	0           	Open  	;
 P-89            	J-153           	J-619           	473.739     	10          	130         	0           	Open  	;
 P-890           	J-749           	I-AV-380        	195.91      	6           	140         	0           	Open  	;
 P-891           	J-750           	O-AV-411        	8215.75     	8           	140         	0           	Open  	;
 P-892           	J-751           	I-AV-113        	11941.37    	6           	140         	0           	Open  	;
 P-893           	J-752           	J-686           	4978.99     	4           	140         	0           	Open  	;
 P-894           	J-753           	J-5             	9310.36     	6           	140         	0           	Open  	;
 P-895           	J-759           	J-754           	2.759       	10          	70          	0           	Open  	;
 P-896           	T-3             	J-755           	41.258      	10          	70          	0           	Open  	;
 P-897           	O-Pump-3        	J-756           	2.48        	10          	70          	0           	Open  	;
 P-898           	J-757           	J-758           	3.269       	10          	70          	0           	Open  	;
 P-899           	J-755           	J-758           	2.578       	10          	70          	0           	Open  	;
 P-9             	J-15            	J-16            	331.26      	4           	70          	0           	Open  	;
 P-90            	J-155           	J-125           	760.4       	6           	130         	0           	Open  	;
 P-900           	J-756           	J-759           	3.2         	10          	70          	0           	Open  	;
 P-901           	J-755           	J-754           	5.26        	10          	70          	0           	Open  	;
 P-902           	J-759           	O-AV-1          	2.5         	10          	70          	0           	Open  	;
 P-903           	J-738           	I-AV-389        	173.21      	12          	130         	0           	Open  	;
 P-904           	J-737           	J-583           	558.609     	6           	140         	0           	Open  	;
 P-905           	J-373           	J-619a          	15.8        	18          	70          	0           	Open  	;
 P-906           	J-761           	J-619a          	9.22        	18          	70          	0           	Open  	;
 P-907           	O-AV-2          	J-761           	2.23        	18          	70          	0           	Open  	;
 P-908           	J-619           	J-154           	1379.989    	10          	130         	0           	Open  	;
 P-909           	I-Pump-2        	J-735           	1.299       	12          	70          	0           	Open  	;
 P-91            	J-59            	J-52            	353.47      	12          	40          	0           	Open  	;
 P-910           	I-AV-1          	J-758           	2.618       	10          	70          	0           	Open  	;
 P-911           	J-619a          	I-AV-2          	2.25        	18          	70          	0           	Open  	;
 P-912           	J-572           	J-621           	575.94      	6           	140         	0           	Closed	;
 P-913           	O-AV-3          	J-432           	859.32      	6           	130         	0           	Open  	;
 P-914           	O-AV-4          	J-542           	428.07      	12          	130         	0           	Open  	;
 P-915           	O-AV-5          	I-AV-468        	101.44      	6           	130         	0           	Open  	;
 P-916           	O-AV-6          	J-649           	690.739     	6           	130         	0           	Open  	;
 P-917           	O-AV-7          	I-AV-6          	734.96      	6           	130         	0           	Open  	;
 P-918           	O-AV-8          	J-648           	195.149     	6           	140         	0           	Open  	;
 P-919           	O-AV-9          	J-650           	194.96      	6           	140         	0           	Open  	;
 P-92            	J-156           	J-157           	372.838     	6           	130         	0           	Open  	;
 P-920           	O-AV-10         	J-650           	219.21      	6           	130         	0           	Open  	;
 P-921           	O-AV-11         	J-663           	358.648     	6           	140         	0           	Open  	;
 P-922           	O-AV-12         	I-AV-8          	82.819      	6           	140         	0           	Open  	;
 P-923           	O-AV-13         	J-234           	458.829     	8           	130         	0           	Open  	;
 P-924           	O-AV-14         	J-672           	176.449     	8           	130         	0           	Open  	;
 P-925           	O-AV-15         	I-AV-26         	645.299     	8           	130         	0           	Open  	;
 P-926           	O-AV-16         	J-294           	699.239     	8           	130         	0           	Open  	;
 P-927           	O-AV-17         	J-312           	345.549     	6           	130         	0           	Open  	;
 P-928           	O-AV-18         	J-311           	223.539     	8           	130         	0           	Open  	;
 P-929           	O-AV-19         	J-235           	344.88      	6           	130         	0           	Open  	;
 P-93            	J-9             	J-158           	1719.109    	12          	130         	0           	Open  	;
 P-930           	O-AV-20         	J-410           	602.218     	8           	130         	0           	Open  	;
 P-931           	O-AV-21         	J-357           	219.35      	8           	130         	0           	Open  	;
 P-932           	O-AV-22         	J-410           	441.928     	8           	130         	0           	Open  	;
 P-933           	O-AV-23         	I-AV-25         	506.769     	8           	130         	0           	Open  	;
 P-934           	O-AV-24         	J-50            	583.679     	8           	130         	0           	Open  	;
 P-935           	O-AV-25         	J-357           	310.85      	8           	130         	0           	Open  	;
 P-936           	O-AV-26         	J-264           	223.3       	8           	130         	0           	Open  	;
 P-937           	O-AV-27         	J-687           	499.39      	6           	130         	0           	Open  	;
 P-938           	O-AV-28         	J-568           	441.32      	6           	130         	0           	Open  	;
 P-939           	O-AV-29         	J-645           	221.199     	6           	130         	0           	Open  	;
 P-94            	J-159           	J-610           	608.02      	6           	40          	0           	Open  	;
 P-940           	O-AV-30         	J-179           	222.8       	6           	130         	0           	Open  	;
 P-941           	O-AV-31         	J-111           	586.27      	6           	130         	0           	Open  	;
 P-942           	O-AV-32         	J-144           	791.658     	6           	130         	0           	Open  	;
 P-943           	O-AV-33         	J-308           	1003.229    	6           	130         	0           	Open  	;
 P-944           	O-AV-34         	J-458           	183         	6           	130         	0           	Open  	;
 P-945           	O-AV-35         	J-308           	175.16      	6           	140         	0           	Open  	;
 P-946           	O-AV-36         	J-643           	222.08      	6           	130         	0           	Open  	;
 P-947           	O-AV-37         	J-260           	172.22      	8           	130         	0           	Open  	;
 P-948           	O-AV-38         	J-604           	209.97      	6           	130         	0           	Open  	;
 P-949           	O-AV-39         	J-271           	179.509     	6           	130         	0           	Open  	;
 P-95            	J-160           	J-161           	10.18       	6           	120         	0           	Open  	;
 P-950           	O-AV-40         	J-273           	1693.848    	8           	120         	0           	Open  	;
 P-951           	O-AV-41         	J-272           	214.58      	6           	120         	0           	Open  	;
 P-952           	O-AV-42         	J-242           	310.959     	8           	140         	0           	Open  	;
 P-953           	O-AV-43         	J-246           	220.809     	6           	140         	0           	Open  	;
 P-954           	O-AV-44         	J-173           	216.029     	6           	140         	0           	Open  	;
 P-955           	O-AV-45         	J-249           	229.309     	6           	140         	0           	Open  	;
 P-956           	O-AV-46         	J-453           	303.73      	6           	140         	0           	Open  	;
 P-957           	O-AV-47         	I-AV-41         	521.5       	6           	120         	0           	Open  	;
 P-958           	O-AV-48         	I-AV-37         	486.308     	8           	130         	0           	Open  	;
 P-959           	O-AV-49         	J-597           	202.729     	6           	120         	0           	Open  	;
 P-96            	J-101           	I-AV-191        	184.419     	6           	40          	0           	Open  	;
 P-960           	O-AV-50         	J-597           	228.61      	4           	70          	0           	Open  	;
 P-961           	O-AV-51         	J-713           	205.789     	10          	120         	0           	Open  	;
 P-962           	O-AV-52         	J-429           	594.348     	10          	120         	0           	Open  	;
 P-963           	O-AV-53         	J-381           	205         	6           	120         	0           	Open  	;
 P-964           	O-AV-54         	J-405           	201.08      	6           	40          	0           	Open  	;
 P-965           	O-AV-55         	J-713           	202.35      	10          	120         	0           	Open  	;
 P-966           	O-AV-56         	J-679           	436.76      	6           	120         	0           	Open  	;
 P-967           	O-AV-57         	J-206           	620.02      	6           	40          	0           	Open  	;
 P-968           	O-AV-58         	J-193           	202.199     	6           	40          	0           	Open  	;
 P-969           	O-AV-59         	J-430           	220.61      	8           	130         	0           	Open  	;
 P-97            	J-160           	J-162           	126.588     	2           	130         	0           	Open  	;
 P-970           	O-AV-60         	J-193           	212.63      	6           	40          	0           	Open  	;
 P-971           	O-AV-61         	J-722           	217.389     	6           	40          	0           	Open  	;
 P-972           	O-AV-62         	J-713           	588.929     	10          	120         	0           	Open  	;
 P-973           	O-AV-63         	J-722           	202.21      	10          	120         	0           	Open  	;
 P-974           	O-AV-64         	J-628           	385.769     	6           	40          	0           	Open  	;
 P-975           	O-AV-65         	J-615           	219.85      	6           	40          	0           	Open  	;
 P-976           	O-AV-66         	J-615           	205.419     	6           	40          	0           	Open  	;
 P-977           	O-AV-67         	J-206           	152.639     	6           	40          	0           	Open  	;
 P-978           	O-AV-68         	J-82            	216.25      	2           	40          	0           	Open  	;
 P-979           	O-AV-69         	J-205           	212.679     	12          	40          	0           	Open  	;
 P-98            	J-147           	J-121           	27.388      	6           	130         	0           	Open  	;
 P-980           	O-AV-70         	J-361           	259.588     	6           	130         	0           	Open  	;
 P-981           	O-AV-71         	J-379           	971.289     	2           	40          	0           	Open  	;
 P-982           	O-AV-72         	J-460           	360.028     	12          	40          	0           	Open  	;
 P-983           	O-AV-73         	J-754           	218.07      	10          	70          	0           	Open  	;
 P-984           	O-AV-74         	J-255           	215.759     	6           	140         	0           	Open  	;
 P-985           	I-AV-75         	I-AV-74         	547.14      	6           	140         	0           	Open  	;
 P-986           	O-AV-76         	J-305           	279.829     	12          	40          	0           	Open  	;
 P-987           	O-AV-77         	J-305           	227.88      	8           	120         	0           	Open  	;
 P-988           	O-AV-78         	I-AV-79         	694.28      	12          	120         	0           	Open  	;
 P-989           	O-AV-79         	I-AV-80         	267.72      	12          	120         	0           	Open  	;
 P-99            	J-127           	I-AV-194        	222.41      	6           	120         	0           	Open  	;
 P-990           	O-AV-80         	J-506           	970.57      	12          	120         	0           	Open  	;
 P-991           	O-AV-81         	J-440           	336.808     	10          	120         	0           	Open  	;
 P-992           	I-AV-82         	J-726           	191.33      	6           	40          	0           	Open  	;
 P-993           	O-AV-83         	J-726           	251.94      	6           	40          	0           	Open  	;
 P-994           	O-AV-84         	J-721           	129.429     	10          	120         	0           	Open  	;
 P-995           	O-AV-85         	J-367           	208.83      	6           	40          	0           	Open  	;
 P-996           	O-AV-86         	J-367           	206.91      	6           	40          	0           	Open  	;
 P-997           	O-AV-87         	J-552           	448.75      	6           	40          	0           	Open  	;
 P-998           	O-AV-88         	J-581           	217.83      	6           	40          	0           	Open  	;
 P-999           	O-AV-89         	J-581           	181.009     	6           	40          	0           	Open  	;
 V-~@AV-1        	I-AV-1          	I-V-~@AV-1      	0.1         	70.32317    	150         	0           	Open  	;
 V-~@AV-10       	I-AV-10         	I-V-~@AV-10     	0.1         	70.32317    	150         	0           	Open  	;
 V-~@AV-100      	I-AV-100        	I-V-~@AV-100    	0.1         	70.32317    	150         	0           	Open  	;
 V-~@AV-101      	I-AV-101        	I-V-~@AV-101    	0.1         	70.32317    	150         	0           	Open  	;
 V-~@AV-102      	I-AV-102        	I-V-~@AV-102    	0.1         	70.32317    	150         	0           	Open  	;
 V-~@AV-103      	I-AV-103        	I-V-~@AV-103    	0.1         	70.32317    	150         	0           	Open  	;
 V-~@AV-104      	I-AV-104        	I-V-~@AV-104    	0.1         	70.32317    	150         	0           	Open  	;
 V-~@AV-105      	I-AV-105        	I-V-~@AV-105    	0.1         	70.32317    	150         	0           	Open  	;
 V-~@AV-106      	I-AV-106        	I-V-~@AV-106    	0.1         	70.32317    	150         	0           	Open  	;
 V-~@AV-107      	I-AV-107        	I-V-~@AV-107    	0.1         	70.32317    	150         	0           	Open  	;
 V-~@AV-108      	I-AV-108        	I-V-~@AV-108    	0.1         	70.32317    	150         	0           	Open  	;
 V-~@AV-109      	I-AV-109        	I-V-~@AV-109    	0.1         	70.32317    	150         	0           	Open  	;
 V-~@AV-11       	I-AV-11         	I-V-~@AV-11     	0.1         	70.32317    	150         	0           	Open  	;
 V-~@AV-110      	I-AV-110        	I-V-~@AV-110    	0.1         	70.32317    	150         	0           	Open  	;
 V-~@AV-111      	I-AV-111        	I-V-~@AV-111    	0.1         	70.32317    	150         	0           	Open  	;
 V-~@AV-112      	I-AV-112        	I-V-~@AV-112    	0.1         	70.32317    	150         	0           	Open  	;
 V-~@AV-113      	I-AV-113        	I-V-~@AV-113    	0.1         	70.32317    	150         	0           	Open  	;
 V-~@AV-114      	I-AV-114        	I-V-~@AV-114    	0.1         	70.32317    	150         	0           	Open  	;
 V-~@AV-115      	I-AV-115        	I-V-~@AV-115    	0.1         	70.32317    	150         	0           	Open  	;
 V-~@AV-116      	I-AV-116        	I-V-~@AV-116    	0.1         	70.32317    	150         	0           	Open  	;
 V-~@AV-117      	I-AV-117        	I-V-~@AV-117    	0.1         	70.32317    	150         	0           	Open  	;
 V-~@AV-118      	I-AV-118        	I-V-~@AV-118    	0.1         	70.32317    	150         	0           	Open  	;
 V-~@AV-119      	I-AV-119        	I-V-~@AV-119    	0.1         	70.32317    	150         	0           	Open  	;
 V-~@AV-12       	I-AV-12         	I-V-~@AV-12     	0.1         	70.32317    	150         	0           	Open  	;
 V-~@AV-120      	I-AV-120        	I-V-~@AV-120    	0.1         	70.32317    	150         	0           	Open  	;
 V-~@AV-121      	I-AV-121        	I-V-~@AV-121    	0.1         	70.32317    	150         	0           	Open  	;
 V-~@AV-122      	I-AV-122        	I-V-~@AV-122    	0.1         	70.32317    	150         	0           	Open  	;
 V-~@AV-123      	I-AV-123        	I-V-~@AV-123    	0.1         	70.32317    	150         	0           	Open  	;
 V-~@AV-124      	I-AV-124        	I-V-~@AV-124    	0.1         	70.32317    	150         	0           	Open  	;
 V-~@AV-125      	I-AV-125        	I-V-~@AV-125    	0.1         	70.32317    	150         	0           	Open  	;
 V-~@AV-126      	I-AV-126        	I-V-~@AV-126    	0.1         	70.32317    	150         	0           	Open  	;
 V-~@AV-127      	I-AV-127        	I-V-~@AV-127    	0.1         	70.32317    	150         	0           	Open  	;
 V-~@AV-128      	I-AV-128        	I-V-~@AV-128    	0.1         	70.32317    	150         	0           	Open  	;
 V-~@AV-129      	I-AV-129        	I-V-~@AV-129    	0.1         	70.32317    	150         	0           	Open  	;
 V-~@AV-13       	I-AV-13         	I-V-~@AV-13     	0.1         	70.32317    	150         	0           	Open  	;
 V-~@AV-130      	I-AV-130        	I-V-~@AV-130    	0.1         	70.32317    	150         	0           	Open  	;
 V-~@AV-131      	I-AV-131        	I-V-~@AV-131    	0.1         	70.32317    	150         	0           	Open  	;
 V-~@AV-132      	I-AV-132        	I-V-~@AV-132    	0.1         	70.32317    	150         	0           	Open  	;
 V-~@AV-133      	I-AV-133        	I-V-~@AV-133    	0.1         	70.32317    	150         	0           	Open  	;
 V-~@AV-134      	I-AV-134        	I-V-~@AV-134    	0.1         	70.32317    	150         	0           	Open  	;
 V-~@AV-135      	I-AV-135        	I-V-~@AV-135    	0.1         	70.32317    	150         	0           	Open  	;
 V-~@AV-136      	I-AV-136        	I-V-~@AV-136    	0.1         	70.32317    	150         	0           	Open  	;
 V-~@AV-137      	I-AV-137        	I-V-~@AV-137    	0.1         	70.32317    	150         	0           	Open  	;
 V-~@AV-138      	I-AV-138        	I-V-~@AV-138    	0.1         	70.32317    	150         	0           	Open  	;
 V-~@AV-139      	I-AV-139        	I-V-~@AV-139    	0.1         	70.32317    	150         	0           	Open  	;
 V-~@AV-14       	I-AV-14         	I-V-~@AV-14     	0.1         	70.32317    	150         	0           	Open  	;
 V-~@AV-140      	I-AV-140        	I-V-~@AV-140    	0.1         	70.32317    	150         	0           	Open  	;
 V-~@AV-141      	I-AV-141        	I-V-~@AV-141    	0.1         	70.32317    	150         	0           	Open  	;
 V-~@AV-142      	I-AV-142        	I-V-~@AV-142    	0.1         	70.32317    	150         	0           	Open  	;
 V-~@AV-143      	I-AV-143        	I-V-~@AV-143    	0.1         	70.32317    	150         	0           	Open  	;
 V-~@AV-144      	I-AV-144        	I-V-~@AV-144    	0.1         	70.32317    	150         	0           	Open  	;
 V-~@AV-145      	I-AV-145        	I-V-~@AV-145    	0.1         	70.32317    	150         	0           	Open  	;
 V-~@AV-146      	I-AV-146        	I-V-~@AV-146    	0.1         	70.32317    	150         	0           	Open  	;
 V-~@AV-147      	I-AV-147        	I-V-~@AV-147    	0.1         	70.32317    	150         	0           	Open  	;
 V-~@AV-148      	I-AV-148        	I-V-~@AV-148    	0.1         	70.32317    	150         	0           	Open  	;
 V-~@AV-149      	I-AV-149        	I-V-~@AV-149    	0.1         	70.32317    	150         	0           	Open  	;
 V-~@AV-15       	I-AV-15         	I-V-~@AV-15     	0.1         	70.32317    	150         	0           	Open  	;
 V-~@AV-150      	I-AV-150        	I-V-~@AV-150    	0.1         	70.32317    	150         	0           	Open  	;
 V-~@AV-151      	I-AV-151        	I-V-~@AV-151    	0.1         	70.32317    	150         	0           	Open  	;
 V-~@AV-152      	I-AV-152        	I-V-~@AV-152    	0.1         	70.32317    	150         	0           	Open  	;
 V-~@AV-153      	I-AV-153        	I-V-~@AV-153    	0.1         	70.32317    	150         	0           	Open  	;
 V-~@AV-154      	I-AV-154        	I-V-~@AV-154    	0.1         	70.32317    	150         	0           	Open  	;
 V-~@AV-155      	I-AV-155        	I-V-~@AV-155    	0.1         	70.32317    	150         	0           	Open  	;
 V-~@AV-156      	I-AV-156        	I-V-~@AV-156    	0.1         	70.32317    	150         	0           	Open  	;
 V-~@AV-157      	I-AV-157        	I-V-~@AV-157    	0.1         	70.32317    	150         	0           	Open  	;
 V-~@AV-158      	I-AV-158        	I-V-~@AV-158    	0.1         	70.32317    	150         	0           	Open  	;
 V-~@AV-159      	I-AV-159        	I-V-~@AV-159    	0.1         	70.32317    	150         	0           	Open  	;
 V-~@AV-16       	I-AV-16         	I-V-~@AV-16     	0.1         	70.32317    	150         	0           	Open  	;
 V-~@AV-160      	I-AV-160        	I-V-~@AV-160    	0.1         	70.32317    	150         	0           	Open  	;
 V-~@AV-161      	I-AV-161        	I-V-~@AV-161    	0.1         	70.32317    	150         	0           	Open  	;
 V-~@AV-162      	I-AV-162        	I-V-~@AV-162    	0.1         	70.32317    	150         	0           	Open  	;
 V-~@AV-163      	I-AV-163        	I-V-~@AV-163    	0.1         	70.32317    	150         	0           	Open  	;
 V-~@AV-164      	I-AV-164        	I-V-~@AV-164    	0.1         	70.32317    	150         	0           	Open  	;
 V-~@AV-165      	I-AV-165        	I-V-~@AV-165    	0.1         	70.32317    	150         	0           	Open  	;
 V-~@AV-166      	I-AV-166        	I-V-~@AV-166    	0.1         	70.32317    	150         	0           	Open  	;
 V-~@AV-167      	I-AV-167        	I-V-~@AV-167    	0.1         	70.32317    	150         	0           	Open  	;
 V-~@AV-168      	I-AV-168        	I-V-~@AV-168    	0.1         	70.32317    	150         	0           	Open  	;
 V-~@AV-169      	I-AV-169        	I-V-~@AV-169    	0.1         	70.32317    	150         	0           	Open  	;
 V-~@AV-17       	I-AV-17         	I-V-~@AV-17     	0.1         	70.32317    	150         	0           	Open  	;
 V-~@AV-170      	I-AV-170        	I-V-~@AV-170    	0.1         	70.32317    	150         	0           	Open  	;
 V-~@AV-171      	I-AV-171        	I-V-~@AV-171    	0.1         	70.32317    	150         	0           	Open  	;
 V-~@AV-172      	I-AV-172        	I-V-~@AV-172    	0.1         	70.32317    	150         	0           	Open  	;
 V-~@AV-173      	I-AV-173        	I-V-~@AV-173    	0.1         	70.32317    	150         	0           	Open  	;
 V-~@AV-174      	I-AV-174        	I-V-~@AV-174    	0.1         	70.32317    	150         	0           	Open  	;
 V-~@AV-175      	I-AV-175        	I-V-~@AV-175    	0.1         	70.32317    	150         	0           	Open  	;
 V-~@AV-176      	I-AV-176        	I-V-~@AV-176    	0.1         	70.32317    	150         	0           	Open  	;
 V-~@AV-177      	I-AV-177        	I-V-~@AV-177    	0.1         	70.32317    	150         	0           	Open  	;
 V-~@AV-178      	I-AV-178        	I-V-~@AV-178    	0.1         	70.32317    	150         	0           	Open  	;
 V-~@AV-179      	I-AV-179        	I-V-~@AV-179    	0.1         	70.32317    	150         	0           	Open  	;
 V-~@AV-18       	I-AV-18         	I-V-~@AV-18     	0.1         	70.32317    	150         	0           	Open  	;
 V-~@AV-180      	I-AV-180        	I-V-~@AV-180    	0.1         	70.32317    	150         	0           	Open  	;
 V-~@AV-181      	I-AV-181        	I-V-~@AV-181    	0.1         	70.32317    	150         	0           	Open  	;
 V-~@AV-182      	I-AV-182        	I-V-~@AV-182    	0.1         	70.32317    	150         	0           	Open  	;
 V-~@AV-183      	I-AV-183        	I-V-~@AV-183    	0.1         	70.32317    	150         	0           	Open  	;
 V-~@AV-184      	I-AV-184        	I-V-~@AV-184    	0.1         	70.32317    	150         	0           	Open  	;
 V-~@AV-185      	I-AV-185        	I-V-~@AV-185    	0.1         	70.32317    	150         	0           	Open  	;
 V-~@AV-186      	I-AV-186        	I-V-~@AV-186    	0.1         	70.32317    	150         	0           	Open  	;
 V-~@AV-187      	I-AV-187        	I-V-~@AV-187    	0.1         	70.32317    	150         	0           	Open  	;
 V-~@AV-188      	I-AV-188        	I-V-~@AV-188    	0.1         	70.32317    	150         	0           	Open  	;
 V-~@AV-189      	I-AV-189        	I-V-~@AV-189    	0.1         	70.32317    	150         	0           	Open  	;
 V-~@AV-19       	I-AV-19         	I-V-~@AV-19     	0.1         	70.32317    	150         	0           	Open  	;
 V-~@AV-190      	I-AV-190        	I-V-~@AV-190    	0.1         	70.32317    	150         	0           	Open  	;
 V-~@AV-191      	I-AV-191        	I-V-~@AV-191    	0.1         	70.32317    	150         	0           	Open  	;
 V-~@AV-192      	I-AV-192        	I-V-~@AV-192    	0.1         	70.32317    	150         	0           	Open  	;
 V-~@AV-193      	I-AV-193        	I-V-~@AV-193    	0.1         	70.32317    	150         	0           	Open  	;
 V-~@AV-194      	I-AV-194        	I-V-~@AV-194    	0.1         	70.32317    	150         	0           	Open  	;
 V-~@AV-195      	I-AV-195        	I-V-~@AV-195    	0.1         	70.32317    	150         	0           	Open  	;
 V-~@AV-196      	I-AV-196        	I-V-~@AV-196    	0.1         	70.32317    	150         	0           	Open  	;
 V-~@AV-197      	I-AV-197        	I-V-~@AV-197    	0.1         	70.32317    	150         	0           	Open  	;
 V-~@AV-198      	I-AV-198        	I-V-~@AV-198    	0.1         	70.32317    	150         	0           	Open  	;
 V-~@AV-199      	I-AV-199        	I-V-~@AV-199    	0.1         	70.32317    	150         	0           	Open  	;
 V-~@AV-2        	I-AV-2          	I-V-~@AV-2      	0.1         	70.32317    	150         	0           	Open  	;
 V-~@AV-20       	I-AV-20         	I-V-~@AV-20     	0.1         	70.32317    	150         	0           	Open  	;
 V-~@AV-200      	I-AV-200        	I-V-~@AV-200    	0.1         	70.32317    	150         	0           	Open  	;
 V-~@AV-201      	I-AV-201        	I-V-~@AV-201    	0.1         	70.32317    	150         	0           	Open  	;
 V-~@AV-202      	I-AV-202        	I-V-~@AV-202    	0.1         	70.32317    	150         	0           	Open  	;
 V-~@AV-204      	I-AV-204        	I-V-~@AV-204    	0.1         	70.32317    	150         	0           	Open  	;
 V-~@AV-205      	I-AV-205        	I-V-~@AV-205    	0.1         	70.32317    	150         	0           	Open  	;
 V-~@AV-206      	I-AV-206        	I-V-~@AV-206    	0.1         	70.32317    	150         	0           	Open  	;
 V-~@AV-207      	I-AV-207        	I-V-~@AV-207    	0.1         	70.32317    	150         	0           	Open  	;
 V-~@AV-208      	I-AV-208        	I-V-~@AV-208    	0.1         	70.32317    	150         	0           	Open  	;
 V-~@AV-209      	I-AV-209        	I-V-~@AV-209    	0.1         	70.32317    	150         	0           	Open  	;
 V-~@AV-21       	I-AV-21         	I-V-~@AV-21     	0.1         	70.32317    	150         	0           	Open  	;
 V-~@AV-210      	I-AV-210        	I-V-~@AV-210    	0.1         	70.32317    	150         	0           	Open  	;
 V-~@AV-211      	I-AV-211        	I-V-~@AV-211    	0.1         	70.32317    	150         	0           	Open  	;
 V-~@AV-212      	I-AV-212        	I-V-~@AV-212    	0.1         	70.32317    	150         	0           	Open  	;
 V-~@AV-213      	I-AV-213        	I-V-~@AV-213    	0.1         	70.32317    	150         	0           	Open  	;
 V-~@AV-214      	I-AV-214        	I-V-~@AV-214    	0.1         	70.32317    	150         	0           	Open  	;
 V-~@AV-215      	I-AV-215        	I-V-~@AV-215    	0.1         	70.32317    	150         	0           	Open  	;
 V-~@AV-216      	I-AV-216        	I-V-~@AV-216    	0.1         	70.32317    	150         	0           	Open  	;
 V-~@AV-217      	I-AV-217        	I-V-~@AV-217    	0.1         	70.32317    	150         	0           	Open  	;
 V-~@AV-218      	I-AV-218        	I-V-~@AV-218    	0.1         	70.32317    	150         	0           	Open  	;
 V-~@AV-219      	I-AV-219        	I-V-~@AV-219    	0.1         	70.32317    	150         	0           	Open  	;
 V-~@AV-22       	I-AV-22         	I-V-~@AV-22     	0.1         	70.32317    	150         	0           	Open  	;
 V-~@AV-220      	I-AV-220        	I-V-~@AV-220    	0.1         	70.32317    	150         	0           	Open  	;
 V-~@AV-221      	I-AV-221        	I-V-~@AV-221    	0.1         	70.32317    	150         	0           	Open  	;
 V-~@AV-222      	I-AV-222        	I-V-~@AV-222    	0.1         	70.32317    	150         	0           	Open  	;
 V-~@AV-223      	I-AV-223        	I-V-~@AV-223    	0.1         	70.32317    	150         	0           	Open  	;
 V-~@AV-224      	I-AV-224        	I-V-~@AV-224    	0.1         	70.32317    	150         	0           	Open  	;
 V-~@AV-225      	I-AV-225        	I-V-~@AV-225    	0.1         	70.32317    	150         	0           	Open  	;
 V-~@AV-226      	I-AV-226        	I-V-~@AV-226    	0.1         	70.32317    	150         	0           	Open  	;
 V-~@AV-227      	I-AV-227        	I-V-~@AV-227    	0.1         	70.32317    	150         	0           	Open  	;
 V-~@AV-228      	I-AV-228        	I-V-~@AV-228    	0.1         	70.32317    	150         	0           	Open  	;
 V-~@AV-229      	I-AV-229        	I-V-~@AV-229    	0.1         	70.32317    	150         	0           	Open  	;
 V-~@AV-23       	I-AV-23         	I-V-~@AV-23     	0.1         	70.32317    	150         	0           	Open  	;
 V-~@AV-230      	I-AV-230        	I-V-~@AV-230    	0.1         	70.32317    	150         	0           	Open  	;
 V-~@AV-231      	I-AV-231        	I-V-~@AV-231    	0.1         	70.32317    	150         	0           	Open  	;
 V-~@AV-232      	I-AV-232        	I-V-~@AV-232    	0.1         	70.32317    	150         	0           	Open  	;
 V-~@AV-233      	I-AV-233        	I-V-~@AV-233    	0.1         	70.32317    	150         	0           	Open  	;
 V-~@AV-234      	I-AV-234        	I-V-~@AV-234    	0.1         	70.32317    	150         	0           	Open  	;
 V-~@AV-235      	I-AV-235        	I-V-~@AV-235    	0.1         	70.32317    	150         	0           	Open  	;
 V-~@AV-236      	I-AV-236        	I-V-~@AV-236    	0.1         	70.32317    	150         	0           	Open  	;
 V-~@AV-237      	I-AV-237        	I-V-~@AV-237    	0.1         	70.32317    	150         	0           	Open  	;
 V-~@AV-238      	I-AV-238        	I-V-~@AV-238    	0.1         	70.32317    	150         	0           	Open  	;
 V-~@AV-239      	I-AV-239        	I-V-~@AV-239    	0.1         	70.32317    	150         	0           	Open  	;
 V-~@AV-24       	I-AV-24         	I-V-~@AV-24     	0.1         	70.32317    	150         	0           	Open  	;
 V-~@AV-240      	I-AV-240        	I-V-~@AV-240    	0.1         	70.32317    	150         	0           	Open  	;
 V-~@AV-241      	I-AV-241        	I-V-~@AV-241    	0.1         	70.32317    	150         	0           	Open  	;
 V-~@AV-242      	I-AV-242        	I-V-~@AV-242    	0.1         	70.32317    	150         	0           	Open  	;
 V-~@AV-243      	I-AV-243        	I-V-~@AV-243    	0.1         	70.32317    	150         	0           	Open  	;
 V-~@AV-244      	I-AV-244        	I-V-~@AV-244    	0.1         	70.32317    	150         	0           	Open  	;
 V-~@AV-245      	I-AV-245        	I-V-~@AV-245    	0.1         	70.32317    	150         	0           	Open  	;
 V-~@AV-246      	I-AV-246        	I-V-~@AV-246    	0.1         	70.32317    	150         	0           	Open  	;
 V-~@AV-247      	I-AV-247        	I-V-~@AV-247    	0.1         	70.32317    	150         	0           	Open  	;
 V-~@AV-248      	I-AV-248        	I-V-~@AV-248    	0.1         	70.32317    	150         	0           	Open  	;
 V-~@AV-249      	I-AV-249        	I-V-~@AV-249    	0.1         	70.32317    	150         	0           	Open  	;
 V-~@AV-25       	I-AV-25         	I-V-~@AV-25     	0.1         	70.32317    	150         	0           	Open  	;
 V-~@AV-250      	I-AV-250        	I-V-~@AV-250    	0.1         	70.32317    	150         	0           	Open  	;
 V-~@AV-251      	I-AV-251        	I-V-~@AV-251    	0.1         	70.32317    	150         	0           	Open  	;
 V-~@AV-252      	I-AV-252        	I-V-~@AV-252    	0.1         	70.32317    	150         	0           	Open  	;
 V-~@AV-253      	I-AV-253        	I-V-~@AV-253    	0.1         	70.32317    	150         	0           	Open  	;
 V-~@AV-254      	I-AV-254        	I-V-~@AV-254    	0.1         	70.32317    	150         	0           	Open  	;
 V-~@AV-255      	I-AV-255        	I-V-~@AV-255    	0.1         	70.32317    	150         	0           	Open  	;
 V-~@AV-256      	I-AV-256        	I-V-~@AV-256    	0.1         	70.32317    	150         	0           	Open  	;
 V-~@AV-257      	I-AV-257        	I-V-~@AV-257    	0.1         	70.32317    	150         	0           	Open  	;
 V-~@AV-258      	I-AV-258        	I-V-~@AV-258    	0.1         	70.32317    	150         	0           	Open  	;
 V-~@AV-259      	I-AV-259        	I-V-~@AV-259    	0.1         	70.32317    	150         	0           	Open  	;
 V-~@AV-26       	I-AV-26         	I-V-~@AV-26     	0.1         	70.32317    	150         	0           	Open  	;
 V-~@AV-260      	I-AV-260        	I-V-~@AV-260    	0.1         	70.32317    	150         	0           	Open  	;
 V-~@AV-261      	I-AV-261        	I-V-~@AV-261    	0.1         	70.32317    	150         	0           	Open  	;
 V-~@AV-262      	I-AV-262        	I-V-~@AV-262    	0.1         	70.32317    	150         	0           	Open  	;
 V-~@AV-263      	I-AV-263        	I-V-~@AV-263    	0.1         	70.32317    	150         	0           	Open  	;
 V-~@AV-264      	I-AV-264        	I-V-~@AV-264    	0.1         	70.32317    	150         	0           	Open  	;
 V-~@AV-265      	I-AV-265        	I-V-~@AV-265    	0.1         	70.32317    	150         	0           	Open  	;
 V-~@AV-266      	I-AV-266        	I-V-~@AV-266    	0.1         	70.32317    	150         	0           	Open  	;
 V-~@AV-267      	I-AV-267        	I-V-~@AV-267    	0.1         	70.32317    	150         	0           	Open  	;
 V-~@AV-268      	I-AV-268        	I-V-~@AV-268    	0.1         	70.32317    	150         	0           	Open  	;
 V-~@AV-269      	I-AV-269        	I-V-~@AV-269    	0.1         	70.32317    	150         	0           	Open  	;
 V-~@AV-27       	I-AV-27         	I-V-~@AV-27     	0.1         	70.32317    	150         	0           	Open  	;
 V-~@AV-270      	I-AV-270        	I-V-~@AV-270    	0.1         	70.32317    	150         	0           	Open  	;
 V-~@AV-271      	I-AV-271        	I-V-~@AV-271    	0.1         	70.32317    	150         	0           	Open  	;
 V-~@AV-272      	I-AV-272        	I-V-~@AV-272    	0.1         	70.32317    	150         	0           	Open  	;
 V-~@AV-273      	I-AV-273        	I-V-~@AV-273    	0.1         	70.32317    	150         	0           	Open  	;
 V-~@AV-274      	I-AV-274        	I-V-~@AV-274    	0.1         	70.32317    	150         	0           	Open  	;
 V-~@AV-275      	I-AV-275        	I-V-~@AV-275    	0.1         	70.32317    	150         	0           	Open  	;
 V-~@AV-276      	I-AV-276        	I-V-~@AV-276    	0.1         	70.32317    	150         	0           	Open  	;
 V-~@AV-277      	I-AV-277        	I-V-~@AV-277    	0.1         	70.32317    	150         	0           	Open  	;
 V-~@AV-278      	I-AV-278        	I-V-~@AV-278    	0.1         	70.32317    	150         	0           	Open  	;
 V-~@AV-279      	I-AV-279        	I-V-~@AV-279    	0.1         	70.32317    	150         	0           	Open  	;
 V-~@AV-28       	I-AV-28         	I-V-~@AV-28     	0.1         	70.32317    	150         	0           	Open  	;
 V-~@AV-280      	I-AV-280        	I-V-~@AV-280    	0.1         	70.32317    	150         	0           	Open  	;
 V-~@AV-281      	I-AV-281        	I-V-~@AV-281    	0.1         	70.32317    	150         	0           	Open  	;
 V-~@AV-282      	I-AV-282        	I-V-~@AV-282    	0.1         	70.32317    	150         	0           	Open  	;
 V-~@AV-283      	I-AV-283        	I-V-~@AV-283    	0.1         	70.32317    	150         	0           	Open  	;
 V-~@AV-284      	I-AV-284        	I-V-~@AV-284    	0.1         	70.32317    	150         	0           	Open  	;
 V-~@AV-285      	I-AV-285        	I-V-~@AV-285    	0.1         	70.32317    	150         	0           	Open  	;
 V-~@AV-286      	I-AV-286        	I-V-~@AV-286    	0.1         	70.32317    	150         	0           	Open  	;
 V-~@AV-287      	I-AV-287        	I-V-~@AV-287    	0.1         	70.32317    	150         	0           	Open  	;
 V-~@AV-288      	I-AV-288        	I-V-~@AV-288    	0.1         	70.32317    	150         	0           	Open  	;
 V-~@AV-289      	I-AV-289        	I-V-~@AV-289    	0.1         	70.32317    	150         	0           	Open  	;
 V-~@AV-29       	I-AV-29         	I-V-~@AV-29     	0.1         	70.32317    	150         	0           	Open  	;
 V-~@AV-290      	I-AV-290        	I-V-~@AV-290    	0.1         	70.32317    	150         	0           	Open  	;
 V-~@AV-291      	I-AV-291        	I-V-~@AV-291    	0.1         	70.32317    	150         	0           	Open  	;
 V-~@AV-292      	I-AV-292        	I-V-~@AV-292    	0.1         	70.32317    	150         	0           	Open  	;
 V-~@AV-293      	I-AV-293        	I-V-~@AV-293    	0.1         	70.32317    	150         	0           	Open  	;
 V-~@AV-294      	I-AV-294        	I-V-~@AV-294    	0.1         	70.32317    	150         	0           	Open  	;
 V-~@AV-295      	I-AV-295        	I-V-~@AV-295    	0.1         	70.32317    	150         	0           	Open  	;
 V-~@AV-296      	I-AV-296        	I-V-~@AV-296    	0.1         	70.32317    	150         	0           	Open  	;
 V-~@AV-297      	I-AV-297        	I-V-~@AV-297    	0.1         	70.32317    	150         	0           	Open  	;
 V-~@AV-298      	I-AV-298        	I-V-~@AV-298    	0.1         	70.32317    	150         	0           	Open  	;
 V-~@AV-299      	I-AV-299        	I-V-~@AV-299    	0.1         	70.32317    	150         	0           	Open  	;
 V-~@AV-3        	I-AV-3          	I-V-~@AV-3      	0.1         	70.32317    	150         	0           	Open  	;
 V-~@AV-30       	I-AV-30         	I-V-~@AV-30     	0.1         	70.32317    	150         	0           	Open  	;
 V-~@AV-300      	I-AV-300        	I-V-~@AV-300    	0.1         	70.32317    	150         	0           	Open  	;
 V-~@AV-301      	I-AV-301        	I-V-~@AV-301    	0.1         	70.32317    	150         	0           	Open  	;
 V-~@AV-302      	I-AV-302        	I-V-~@AV-302    	0.1         	70.32317    	150         	0           	Open  	;
 V-~@AV-303      	I-AV-303        	I-V-~@AV-303    	0.1         	70.32317    	150         	0           	Open  	;
 V-~@AV-304      	I-AV-304        	I-V-~@AV-304    	0.1         	70.32317    	150         	0           	Open  	;
 V-~@AV-305      	I-AV-305        	I-V-~@AV-305    	0.1         	70.32317    	150         	0           	Open  	;
 V-~@AV-306      	I-AV-306        	I-V-~@AV-306    	0.1         	70.32317    	150         	0           	Open  	;
 V-~@AV-307      	I-AV-307        	I-V-~@AV-307    	0.1         	70.32317    	150         	0           	Open  	;
 V-~@AV-308      	I-AV-308        	I-V-~@AV-308    	0.1         	70.32317    	150         	0           	Open  	;
 V-~@AV-309      	I-AV-309        	I-V-~@AV-309    	0.1         	70.32317    	150         	0           	Open  	;
 V-~@AV-31       	I-AV-31         	I-V-~@AV-31     	0.1         	70.32317    	150         	0           	Open  	;
 V-~@AV-310      	I-AV-310        	I-V-~@AV-310    	0.1         	70.32317    	150         	0           	Open  	;
 V-~@AV-311      	I-AV-311        	I-V-~@AV-311    	0.1         	70.32317    	150         	0           	Open  	;
 V-~@AV-312      	I-AV-312        	I-V-~@AV-312    	0.1         	70.32317    	150         	0           	Open  	;
 V-~@AV-313      	I-AV-313        	I-V-~@AV-313    	0.1         	70.32317    	150         	0           	Open  	;
 V-~@AV-314      	I-AV-314        	I-V-~@AV-314    	0.1         	70.32317    	150         	0           	Open  	;
 V-~@AV-315      	I-AV-315        	I-V-~@AV-315    	0.1         	70.32317    	150         	0           	Open  	;
 V-~@AV-316      	I-AV-316        	I-V-~@AV-316    	0.1         	70.32317    	150         	0           	Open  	;
 V-~@AV-317      	I-AV-317        	I-V-~@AV-317    	0.1         	70.32317    	150         	0           	Open  	;
 V-~@AV-318      	I-AV-318        	I-V-~@AV-318    	0.1         	70.32317    	150         	0           	Open  	;
 V-~@AV-319      	I-AV-319        	I-V-~@AV-319    	0.1         	70.32317    	150         	0           	Open  	;
 V-~@AV-32       	I-AV-32         	I-V-~@AV-32     	0.1         	70.32317    	150         	0           	Open  	;
 V-~@AV-320      	I-AV-320        	I-V-~@AV-320    	0.1         	70.32317    	150         	0           	Open  	;
 V-~@AV-321      	I-AV-321        	I-V-~@AV-321    	0.1         	70.32317    	150         	0           	Open  	;
 V-~@AV-322      	I-AV-322        	I-V-~@AV-322    	0.1         	70.32317    	150         	0           	Open  	;
 V-~@AV-323      	I-AV-323        	I-V-~@AV-323    	0.1         	70.32317    	150         	0           	Open  	;
 V-~@AV-324      	I-AV-324        	I-V-~@AV-324    	0.1         	70.32317    	150         	0           	Open  	;
 V-~@AV-325      	I-AV-325        	I-V-~@AV-325    	0.1         	70.32317    	150         	0           	Open  	;
 V-~@AV-326      	I-AV-326        	I-V-~@AV-326    	0.1         	70.32317    	150         	0           	Open  	;
 V-~@AV-327      	I-AV-327        	I-V-~@AV-327    	0.1         	70.32317    	150         	0           	Open  	;
 V-~@AV-328      	I-AV-328        	I-V-~@AV-328    	0.1         	70.32317    	150         	0           	Open  	;
 V-~@AV-329      	I-AV-329        	I-V-~@AV-329    	0.1         	70.32317    	150         	0           	Open  	;
 V-~@AV-33       	I-AV-33         	I-V-~@AV-33     	0.1         	70.32317    	150         	0           	Open  	;
 V-~@AV-330      	I-AV-330        	I-V-~@AV-330    	0.1         	70.32317    	150         	0           	Open  	;
 V-~@AV-331      	I-AV-331        	I-V-~@AV-331    	0.1         	70.32317    	150         	0           	Open  	;
 V-~@AV-332      	I-AV-332        	I-V-~@AV-332    	0.1         	70.32317    	150         	0           	Open  	;
 V-~@AV-333      	I-AV-333        	I-V-~@AV-333    	0.1         	70.32317    	150         	0           	Open  	;
 V-~@AV-334      	I-AV-334        	I-V-~@AV-334    	0.1         	70.32317    	150         	0           	Open  	;
 V-~@AV-335      	I-AV-335        	I-V-~@AV-335    	0.1         	70.32317    	150         	0           	Open  	;
 V-~@AV-336      	I-AV-336        	I-V-~@AV-336    	0.1         	70.32317    	150         	0           	Open  	;
 V-~@AV-337      	I-AV-337        	I-V-~@AV-337    	0.1         	70.32317    	150         	0           	Open  	;
 V-~@AV-338      	I-AV-338        	I-V-~@AV-338    	0.1         	70.32317    	150         	0           	Open  	;
 V-~@AV-339      	I-AV-339        	I-V-~@AV-339    	0.1         	70.32317    	150         	0           	Open  	;
 V-~@AV-34       	I-AV-34         	I-V-~@AV-34     	0.1         	70.32317    	150         	0           	Open  	;
 V-~@AV-340      	I-AV-340        	I-V-~@AV-340    	0.1         	70.32317    	150         	0           	Open  	;
 V-~@AV-341      	I-AV-341        	I-V-~@AV-341    	0.1         	70.32317    	150         	0           	Open  	;
 V-~@AV-342      	I-AV-342        	I-V-~@AV-342    	0.1         	70.32317    	150         	0           	Open  	;
 V-~@AV-343      	I-AV-343        	I-V-~@AV-343    	0.1         	70.32317    	150         	0           	Open  	;
 V-~@AV-344      	I-AV-344        	I-V-~@AV-344    	0.1         	70.32317    	150         	0           	Open  	;
 V-~@AV-345      	I-AV-345        	I-V-~@AV-345    	0.1         	70.32317    	150         	0           	Open  	;
 V-~@AV-346      	I-AV-346        	I-V-~@AV-346    	0.1         	70.32317    	150         	0           	Open  	;
 V-~@AV-347      	I-AV-347        	I-V-~@AV-347    	0.1         	70.32317    	150         	0           	Open  	;
 V-~@AV-348      	I-AV-348        	I-V-~@AV-348    	0.1         	70.32317    	150         	0           	Open  	;
 V-~@AV-349      	I-AV-349        	I-V-~@AV-349    	0.1         	70.32317    	150         	0           	Open  	;
 V-~@AV-35       	I-AV-35         	I-V-~@AV-35     	0.1         	70.32317    	150         	0           	Open  	;
 V-~@AV-350      	I-AV-350        	I-V-~@AV-350    	0.1         	70.32317    	150         	0           	Open  	;
 V-~@AV-351      	I-AV-351        	I-V-~@AV-351    	0.1         	70.32317    	150         	0           	Open  	;
 V-~@AV-352      	I-AV-352        	I-V-~@AV-352    	0.1         	70.32317    	150         	0           	Open  	;
 V-~@AV-353      	I-AV-353        	I-V-~@AV-353    	0.1         	70.32317    	150         	0           	Open  	;
 V-~@AV-354      	I-AV-354        	I-V-~@AV-354    	0.1         	70.32317    	150         	0           	Open  	;
 V-~@AV-355      	I-AV-355        	I-V-~@AV-355    	0.1         	70.32317    	150         	0           	Open  	;
 V-~@AV-356      	I-AV-356        	I-V-~@AV-356    	0.1         	70.32317    	150         	0           	Open  	;
 V-~@AV-357      	I-AV-357        	I-V-~@AV-357    	0.1         	70.32317    	150         	0           	Open  	;
 V-~@AV-358      	I-AV-358        	I-V-~@AV-358    	0.1         	70.32317    	150         	0           	Open  	;
 V-~@AV-359      	I-AV-359        	I-V-~@AV-359    	0.1         	70.32317    	150         	0           	Open  	;
 V-~@AV-36       	I-AV-36         	I-V-~@AV-36     	0.1         	70.32317    	150         	0           	Open  	;
 V-~@AV-360      	I-AV-360        	I-V-~@AV-360    	0.1         	70.32317    	150         	0           	Open  	;
 V-~@AV-361      	I-AV-361        	I-V-~@AV-361    	0.1         	70.32317    	150         	0           	Open  	;
 V-~@AV-362      	I-AV-362        	I-V-~@AV-362    	0.1         	70.32317    	150         	0           	Open  	;
 V-~@AV-363      	I-AV-363        	I-V-~@AV-363    	0.1         	70.32317    	150         	0           	Open  	;
 V-~@AV-364      	I-AV-364        	I-V-~@AV-364    	0.1         	70.32317    	150         	0           	Open  	;
 V-~@AV-365      	I-AV-365        	I-V-~@AV-365    	0.1         	70.32317    	150         	0           	Open  	;
 V-~@AV-366      	I-AV-366        	I-V-~@AV-366    	0.1         	70.32317    	150         	0           	Open  	;
 V-~@AV-367      	I-AV-367        	I-V-~@AV-367    	0.1         	70.32317    	150         	0           	Open  	;
 V-~@AV-368      	I-AV-368        	I-V-~@AV-368    	0.1         	70.32317    	150         	0           	Open  	;
 V-~@AV-369      	I-AV-369        	I-V-~@AV-369    	0.1         	70.32317    	150         	0           	Open  	;
 V-~@AV-37       	I-AV-37         	I-V-~@AV-37     	0.1         	70.32317    	150         	0           	Open  	;
 V-~@AV-370      	I-AV-370        	I-V-~@AV-370    	0.1         	70.32317    	150         	0           	Open  	;
 V-~@AV-371      	I-AV-371        	I-V-~@AV-371    	0.1         	70.32317    	150         	0           	Open  	;
 V-~@AV-372      	I-AV-372        	I-V-~@AV-372    	0.1         	70.32317    	150         	0           	Open  	;
 V-~@AV-373      	I-AV-373        	I-V-~@AV-373    	0.1         	70.32317    	150         	0           	Open  	;
 V-~@AV-374      	I-AV-374        	I-V-~@AV-374    	0.1         	70.32317    	150         	0           	Open  	;
 V-~@AV-375      	I-AV-375        	I-V-~@AV-375    	0.1         	70.32317    	150         	0           	Open  	;
 V-~@AV-376      	I-AV-376        	I-V-~@AV-376    	0.1         	70.32317    	150         	0           	Open  	;
 V-~@AV-377      	I-AV-377        	I-V-~@AV-377    	0.1         	70.32317    	150         	0           	Open  	;
 V-~@AV-378      	I-AV-378        	I-V-~@AV-378    	0.1         	70.32317    	150         	0           	Open  	;
 V-~@AV-379      	I-AV-379        	I-V-~@AV-379    	0.1         	70.32317    	150         	0           	Open  	;
 V-~@AV-38       	I-AV-38         	I-V-~@AV-38     	0.1         	70.32317    	150         	0           	Open  	;
 V-~@AV-380      	I-AV-380        	I-V-~@AV-380    	0.1         	70.32317    	150         	0           	Open  	;
 V-~@AV-381      	I-AV-381        	I-V-~@AV-381    	0.1         	70.32317    	150         	0           	Open  	;
 V-~@AV-382      	I-AV-382        	I-V-~@AV-382    	0.1         	70.32317    	150         	0           	Open  	;
 V-~@AV-383      	I-AV-383        	I-V-~@AV-383    	0.1         	70.32317    	150         	0           	Open  	;
 V-~@AV-384      	I-AV-384        	I-V-~@AV-384    	0.1         	70.32317    	150         	0           	Open  	;
 V-~@AV-385      	I-AV-385        	I-V-~@AV-385    	0.1         	70.32317    	150         	0           	Open  	;
 V-~@AV-386      	I-AV-386        	I-V-~@AV-386    	0.1         	70.32317    	150         	0           	Open  	;
 V-~@AV-387      	I-AV-387        	I-V-~@AV-387    	0.1         	70.32317    	150         	0           	Open  	;
 V-~@AV-388      	I-AV-388        	I-V-~@AV-388    	0.1         	70.32317    	150         	0           	Open  	;
 V-~@AV-389      	I-AV-389        	I-V-~@AV-389    	0.1         	70.32317    	150         	0           	Open  	;
 V-~@AV-39       	I-AV-39         	I-V-~@AV-39     	0.1         	70.32317    	150         	0           	Open  	;
 V-~@AV-390      	I-AV-390        	I-V-~@AV-390    	0.1         	70.32317    	150         	0           	Open  	;
 V-~@AV-391      	I-AV-391        	I-V-~@AV-391    	0.1         	70.32317    	150         	0           	Open  	;
 V-~@AV-392      	I-AV-392        	I-V-~@AV-392    	0.1         	70.32317    	150         	0           	Open  	;
 V-~@AV-393      	I-AV-393        	I-V-~@AV-393    	0.1         	70.32317    	150         	0           	Open  	;
 V-~@AV-394      	I-AV-394        	I-V-~@AV-394    	0.1         	70.32317    	150         	0           	Open  	;
 V-~@AV-395      	I-AV-395        	I-V-~@AV-395    	0.1         	70.32317    	150         	0           	Open  	;
 V-~@AV-396      	I-AV-396        	I-V-~@AV-396    	0.1         	70.32317    	150         	0           	Open  	;
 V-~@AV-397      	I-AV-397        	I-V-~@AV-397    	0.1         	70.32317    	150         	0           	Open  	;
 V-~@AV-398      	I-AV-398        	I-V-~@AV-398    	0.1         	70.32317    	150         	0           	Open  	;
 V-~@AV-399      	I-AV-399        	I-V-~@AV-399    	0.1         	70.32317    	150         	0           	Open  	;
 V-~@AV-4        	I-AV-4          	I-V-~@AV-4      	0.1         	70.32317    	150         	0           	Open  	;
 V-~@AV-40       	I-AV-40         	I-V-~@AV-40     	0.1         	70.32317    	150         	0           	Open  	;
 V-~@AV-400      	I-AV-400        	I-V-~@AV-400    	0.1         	70.32317    	150         	0           	Open  	;
 V-~@AV-401      	I-AV-401        	I-V-~@AV-401    	0.1         	70.32317    	150         	0           	Open  	;
 V-~@AV-402      	I-AV-402        	I-V-~@AV-402    	0.1         	70.32317    	150         	0           	Open  	;
 V-~@AV-403      	I-AV-403        	I-V-~@AV-403    	0.1         	70.32317    	150         	0           	Open  	;
 V-~@AV-404      	I-AV-404        	I-V-~@AV-404    	0.1         	70.32317    	150         	0           	Open  	;
 V-~@AV-405      	I-AV-405        	I-V-~@AV-405    	0.1         	70.32317    	150         	0           	Open  	;
 V-~@AV-406      	I-AV-406        	I-V-~@AV-406    	0.1         	70.32317    	150         	0           	Open  	;
 V-~@AV-407      	I-AV-407        	I-V-~@AV-407    	0.1         	70.32317    	150         	0           	Open  	;
 V-~@AV-408      	I-AV-408        	I-V-~@AV-408    	0.1         	70.32317    	150         	0           	Open  	;
 V-~@AV-409      	I-AV-409        	I-V-~@AV-409    	0.1         	70.32317    	150         	0           	Open  	;
 V-~@AV-41       	I-AV-41         	I-V-~@AV-41     	0.1         	70.32317    	150         	0           	Open  	;
 V-~@AV-410      	I-AV-410        	I-V-~@AV-410    	0.1         	70.32317    	150         	0           	Open  	;
 V-~@AV-411      	I-AV-411        	I-V-~@AV-411    	0.1         	70.32317    	150         	0           	Open  	;
 V-~@AV-412      	I-AV-412        	I-V-~@AV-412    	0.1         	70.32317    	150         	0           	Open  	;
 V-~@AV-413      	I-AV-413        	I-V-~@AV-413    	0.1         	70.32317    	150         	0           	Open  	;
 V-~@AV-414      	I-AV-414        	I-V-~@AV-414    	0.1         	70.32317    	150         	0           	Open  	;
 V-~@AV-415      	I-AV-415        	I-V-~@AV-415    	0.1         	70.32317    	150         	0           	Open  	;
 V-~@AV-416      	I-AV-416        	I-V-~@AV-416    	0.1         	70.32317    	150         	0           	Open  	;
 V-~@AV-417      	I-AV-417        	I-V-~@AV-417    	0.1         	70.32317    	150         	0           	Open  	;
 V-~@AV-418      	I-AV-418        	I-V-~@AV-418    	0.1         	70.32317    	150         	0           	Open  	;
 V-~@AV-419      	I-AV-419        	I-V-~@AV-419    	0.1         	70.32317    	150         	0           	Open  	;
 V-~@AV-42       	I-AV-42         	I-V-~@AV-42     	0.1         	70.32317    	150         	0           	Open  	;
 V-~@AV-420      	I-AV-420        	I-V-~@AV-420    	0.1         	70.32317    	150         	0           	Open  	;
 V-~@AV-421      	I-AV-421        	I-V-~@AV-421    	0.1         	70.32317    	150         	0           	Open  	;
 V-~@AV-422      	I-AV-422        	I-V-~@AV-422    	0.1         	70.32317    	150         	0           	Open  	;
 V-~@AV-423      	I-AV-423        	I-V-~@AV-423    	0.1         	70.32317    	150         	0           	Open  	;
 V-~@AV-424      	I-AV-424        	I-V-~@AV-424    	0.1         	70.32317    	150         	0           	Open  	;
 V-~@AV-425      	I-AV-425        	I-V-~@AV-425    	0.1         	70.32317    	150         	0           	Open  	;
 V-~@AV-426      	I-AV-426        	I-V-~@AV-426    	0.1         	70.32317    	150         	0           	Open  	;
 V-~@AV-427      	I-AV-427        	I-V-~@AV-427    	0.1         	70.32317    	150         	0           	Open  	;
 V-~@AV-428      	I-AV-428        	I-V-~@AV-428    	0.1         	70.32317    	150         	0           	Open  	;
 V-~@AV-429      	I-AV-429        	I-V-~@AV-429    	0.1         	70.32317    	150         	0           	Open  	;
 V-~@AV-43       	I-AV-43         	I-V-~@AV-43     	0.1         	70.32317    	150         	0           	Open  	;
 V-~@AV-430      	I-AV-430        	I-V-~@AV-430    	0.1         	70.32317    	150         	0           	Open  	;
 V-~@AV-431      	I-AV-431        	I-V-~@AV-431    	0.1         	70.32317    	150         	0           	Open  	;
 V-~@AV-432      	I-AV-432        	I-V-~@AV-432    	0.1         	70.32317    	150         	0           	Open  	;
 V-~@AV-433      	I-AV-433        	I-V-~@AV-433    	0.1         	70.32317    	150         	0           	Open  	;
 V-~@AV-434      	I-AV-434        	I-V-~@AV-434    	0.1         	70.32317    	150         	0           	Open  	;
 V-~@AV-435      	I-AV-435        	I-V-~@AV-435    	0.1         	70.32317    	150         	0           	Open  	;
 V-~@AV-436      	I-AV-436        	I-V-~@AV-436    	0.1         	70.32317    	150         	0           	Open  	;
 V-~@AV-437      	I-AV-437        	I-V-~@AV-437    	0.1         	70.32317    	150         	0           	Open  	;
 V-~@AV-438      	I-AV-438        	I-V-~@AV-438    	0.1         	70.32317    	150         	0           	Open  	;
 V-~@AV-439      	I-AV-439        	I-V-~@AV-439    	0.1         	70.32317    	150         	0           	Open  	;
 V-~@AV-44       	I-AV-44         	I-V-~@AV-44     	0.1         	70.32317    	150         	0           	Open  	;
 V-~@AV-440      	I-AV-440        	I-V-~@AV-440    	0.1         	70.32317    	150         	0           	Open  	;
 V-~@AV-441      	I-AV-441        	I-V-~@AV-441    	0.1         	70.32317    	150         	0           	Open  	;
 V-~@AV-442      	I-AV-442        	I-V-~@AV-442    	0.1         	70.32317    	150         	0           	Open  	;
 V-~@AV-443      	I-AV-443        	I-V-~@AV-443    	0.1         	70.32317    	150         	0           	Open  	;
 V-~@AV-444      	I-AV-444        	I-V-~@AV-444    	0.1         	70.32317    	150         	0           	Open  	;
 V-~@AV-445      	I-AV-445        	I-V-~@AV-445    	0.1         	70.32317    	150         	0           	Open  	;
 V-~@AV-446      	I-AV-446        	I-V-~@AV-446    	0.1         	70.32317    	150         	0           	Open  	;
 V-~@AV-447      	I-AV-447        	I-V-~@AV-447    	0.1         	70.32317    	150         	0           	Open  	;
 V-~@AV-448      	I-AV-448        	I-V-~@AV-448    	0.1         	70.32317    	150         	0           	Open  	;
 V-~@AV-449      	I-AV-449        	I-V-~@AV-449    	0.1         	70.32317    	150         	0           	Open  	;
 V-~@AV-45       	I-AV-45         	I-V-~@AV-45     	0.1         	70.32317    	150         	0           	Open  	;
 V-~@AV-450      	I-AV-450        	I-V-~@AV-450    	0.1         	70.32317    	150         	0           	Open  	;
 V-~@AV-451      	I-AV-451        	I-V-~@AV-451    	0.1         	70.32317    	150         	0           	Open  	;
 V-~@AV-452      	I-AV-452        	I-V-~@AV-452    	0.1         	70.32317    	150         	0           	Open  	;
 V-~@AV-453      	I-AV-453        	I-V-~@AV-453    	0.1         	70.32317    	150         	0           	Open  	;
 V-~@AV-454      	I-AV-454        	I-V-~@AV-454    	0.1         	70.32317    	150         	0           	Open  	;
 V-~@AV-455      	I-AV-455        	I-V-~@AV-455    	0.1         	70.32317    	150         	0           	Open  	;
 V-~@AV-456      	I-AV-456        	I-V-~@AV-456    	0.1         	70.32317    	150         	0           	Open  	;
 V-~@AV-457      	I-AV-457        	I-V-~@AV-457    	0.1         	70.32317    	150         	0           	Open  	;
 V-~@AV-458      	I-AV-458        	I-V-~@AV-458    	0.1         	70.32317    	150         	0           	Open  	;
 V-~@AV-459      	I-AV-459        	I-V-~@AV-459    	0.1         	70.32317    	150         	0           	Open  	;
 V-~@AV-46       	I-AV-46         	I-V-~@AV-46     	0.1         	70.32317    	150         	0           	Open  	;
 V-~@AV-460      	I-AV-460        	I-V-~@AV-460    	0.1         	70.32317    	150         	0           	Open  	;
 V-~@AV-461      	I-AV-461        	I-V-~@AV-461    	0.1         	70.32317    	150         	0           	Open  	;
 V-~@AV-462      	I-AV-462        	I-V-~@AV-462    	0.1         	70.32317    	150         	0           	Open  	;
 V-~@AV-463      	I-AV-463        	I-V-~@AV-463    	0.1         	70.32317    	150         	0           	Open  	;
 V-~@AV-464      	I-AV-464        	I-V-~@AV-464    	0.1         	70.32317    	150         	0           	Open  	;
 V-~@AV-465      	I-AV-465        	I-V-~@AV-465    	0.1         	70.32317    	150         	0           	Open  	;
 V-~@AV-466      	I-AV-466        	I-V-~@AV-466    	0.1         	70.32317    	150         	0           	Open  	;
 V-~@AV-467      	I-AV-467        	I-V-~@AV-467    	0.1         	70.32317    	150         	0           	Open  	;
 V-~@AV-468      	I-AV-468        	I-V-~@AV-468    	0.1         	70.32317    	150         	0           	Open  	;
 V-~@AV-47       	I-AV-47         	I-V-~@AV-47     	0.1         	70.32317    	150         	0           	Open  	;
 V-~@AV-48       	I-AV-48         	I-V-~@AV-48     	0.1         	70.32317    	150         	0           	Open  	;
 V-~@AV-49       	I-AV-49         	I-V-~@AV-49     	0.1         	70.32317    	150         	0           	Open  	;
 V-~@AV-5        	I-AV-5          	I-V-~@AV-5      	0.1         	70.32317    	150         	0           	Open  	;
 V-~@AV-50       	I-AV-50         	I-V-~@AV-50     	0.1         	70.32317    	150         	0           	Open  	;
 V-~@AV-51       	I-AV-51         	I-V-~@AV-51     	0.1         	70.32317    	150         	0           	Open  	;
 V-~@AV-52       	I-AV-52         	I-V-~@AV-52     	0.1         	70.32317    	150         	0           	Open  	;
 V-~@AV-53       	I-AV-53         	I-V-~@AV-53     	0.1         	70.32317    	150         	0           	Open  	;
 V-~@AV-54       	I-AV-54         	I-V-~@AV-54     	0.1         	70.32317    	150         	0           	Open  	;
 V-~@AV-55       	I-AV-55         	I-V-~@AV-55     	0.1         	70.32317    	150         	0           	Open  	;
 V-~@AV-56       	I-AV-56         	I-V-~@AV-56     	0.1         	70.32317    	150         	0           	Open  	;
 V-~@AV-57       	I-AV-57         	I-V-~@AV-57     	0.1         	70.32317    	150         	0           	Open  	;
 V-~@AV-58       	I-AV-58         	I-V-~@AV-58     	0.1         	70.32317    	150         	0           	Open  	;
 V-~@AV-59       	I-AV-59         	I-V-~@AV-59     	0.1         	70.32317    	150         	0           	Open  	;
 V-~@AV-6        	I-AV-6          	I-V-~@AV-6      	0.1         	70.32317    	150         	0           	Open  	;
 V-~@AV-60       	I-AV-60         	I-V-~@AV-60     	0.1         	70.32317    	150         	0           	Open  	;
 V-~@AV-61       	I-AV-61         	I-V-~@AV-61     	0.1         	70.32317    	150         	0           	Open  	;
 V-~@AV-62       	I-AV-62         	I-V-~@AV-62     	0.1         	70.32317    	150         	0           	Open  	;
 V-~@AV-63       	I-AV-63         	I-V-~@AV-63     	0.1         	70.32317    	150         	0           	Open  	;
 V-~@AV-64       	I-AV-64         	I-V-~@AV-64     	0.1         	70.32317    	150         	0           	Open  	;
 V-~@AV-65       	I-AV-65         	I-V-~@AV-65     	0.1         	70.32317    	150         	0           	Open  	;
 V-~@AV-66       	I-AV-66         	I-V-~@AV-66     	0.1         	70.32317    	150         	0           	Open  	;
 V-~@AV-67       	I-AV-67         	I-V-~@AV-67     	0.1         	70.32317    	150         	0           	Open  	;
 V-~@AV-68       	I-AV-68         	I-V-~@AV-68     	0.1         	70.32317    	150         	0           	Open  	;
 V-~@AV-69       	I-AV-69         	I-V-~@AV-69     	0.1         	70.32317    	150         	0           	Open  	;
 V-~@AV-7        	I-AV-7          	I-V-~@AV-7      	0.1         	70.32317    	150         	0           	Open  	;
 V-~@AV-70       	I-AV-70         	I-V-~@AV-70     	0.1         	70.32317    	150         	0           	Open  	;
 V-~@AV-71       	I-AV-71         	I-V-~@AV-71     	0.1         	70.32317    	150         	0           	Open  	;
 V-~@AV-72       	I-AV-72         	I-V-~@AV-72     	0.1         	70.32317    	150         	0           	Open  	;
 V-~@AV-73       	I-AV-73         	I-V-~@AV-73     	0.1         	70.32317    	150         	0           	Open  	;
 V-~@AV-74       	I-AV-74         	I-V-~@AV-74     	0.1         	70.32317    	150         	0           	Open  	;
 V-~@AV-75       	I-AV-75         	I-V-~@AV-75     	0.1         	70.32317    	150         	0           	Open  	;
 V-~@AV-76       	I-AV-76         	I-V-~@AV-76     	0.1         	70.32317    	150         	0           	Open  	;
 V-~@AV-77       	I-AV-77         	I-V-~@AV-77     	0.1         	70.32317    	150         	0           	Open  	;
 V-~@AV-78       	I-AV-78         	I-V-~@AV-78     	0.1         	70.32317    	150         	0           	Open  	;
 V-~@AV-79       	I-AV-79         	I-V-~@AV-79     	0.1         	70.32317    	150         	0           	Open  	;
 V-~@AV-8        	I-AV-8          	I-V-~@AV-8      	0.1         	70.32317    	150         	0           	Open  	;
 V-~@AV-80       	I-AV-80         	I-V-~@AV-80     	0.1         	70.32317    	150         	0           	Open  	;
 V-~@AV-81       	I-AV-81         	I-V-~@AV-81     	0.1         	70.32317    	150         	0           	Open  	;
 V-~@AV-82       	I-AV-82         	I-V-~@AV-82     	0.1         	70.32317    	150         	0           	Open  	;
 V-~@AV-83       	I-AV-83         	I-V-~@AV-83     	0.1         	70.32317    	150         	0           	Open  	;
 V-~@AV-84       	I-AV-84         	I-V-~@AV-84     	0.1         	70.32317    	150         	0           	Open  	;
 V-~@AV-85       	I-AV-85         	I-V-~@AV-85     	0.1         	70.32317    	150         	0           	Open  	;
 V-~@AV-86       	I-AV-86         	I-V-~@AV-86     	0.1         	70.32317    	150         	0           	Open  	;
 V-~@AV-87       	I-AV-87         	I-V-~@AV-87     	0.1         	70.32317    	150         	0           	Open  	;
 V-~@AV-88       	I-AV-88         	I-V-~@AV-88     	0.1         	70.32317    	150         	0           	Open  	;
 V-~@AV-89       	I-AV-89         	I-V-~@AV-89     	0.1         	70.32317    	150         	0           	Open  	;
 V-~@AV-9        	I-AV-9          	I-V-~@AV-9      	0.1         	70.32317    	150         	0           	Open  	;
 V-~@AV-90       	I-AV-90         	I-V-~@AV-90     	0.1         	70.32317    	150         	0           	Open  	;
 V-~@AV-91       	I-AV-91         	I-V-~@AV-91     	0.1         	70.32317    	150         	0           	Open  	;
 V-~@AV-92       	I-AV-92         	I-V-~@AV-92     	0.1         	70.32317    	150         	0           	Open  	;
 V-~@AV-93       	I-AV-93         	I-V-~@AV-93     	0.1         	70.32317    	150         	0           	Open  	;
 V-~@AV-94       	I-AV-94         	I-V-~@AV-94     	0.1         	70.32317    	150         	0           	Open  	;
 V-~@AV-95       	I-AV-95         	I-V-~@AV-95     	0.1         	70.32317    	150         	0           	Open  	;
 V-~@AV-96       	I-AV-96         	I-V-~@AV-96     	0.1         	70.32317    	150         	0           	Open  	;
 V-~@AV-97       	I-AV-97         	I-V-~@AV-97     	0.1         	70.32317    	150         	0           	Open  	;
 V-~@AV-98       	I-AV-98         	I-V-~@AV-98     	0.1         	70.32317    	150         	0           	Open  	;
 V-~@AV-99       	I-AV-99         	I-V-~@AV-99     	0.1         	70.32317    	150         	0           	Open  	;

[PUMPS]
;ID              	Node1           	Node2           	Parameters
 ~@P-~@Pump-1    	I-P-~@Pump-1    	O-P-~@Pump-1    	HEAD P3	SPEED 1	;
 ~@P-~@Pump-2    	I-P-~@Pump-2    	O-P-~@Pump-2    	HEAD P1	SPEED 0.93	;
 ~@P-~@Pump-3    	I-P-~@Pump-3    	O-P-~@Pump-3    	POWER 7	SPEED 0.9	;

[VALVES]
;ID              	Node1           	Node2           	Diameter    	Type	Setting     	MinorLoss   
 ~@V-~@AV-1      	I-V-~@AV-1      	O-V-~@AV-1      	1000        	TCV 	1.000006E+08	0           	;
 ~@V-~@AV-10     	I-V-~@AV-10     	O-V-~@AV-10     	1000        	TCV 	1.000006E+08	0           	;
 ~@V-~@AV-100    	I-V-~@AV-100    	O-V-~@AV-100    	1000        	TCV 	1.000006E+08	0           	;
 ~@V-~@AV-101    	I-V-~@AV-101    	O-V-~@AV-101    	1000        	TCV 	1.000006E+08	0           	;
 ~@V-~@AV-102    	I-V-~@AV-102    	O-V-~@AV-102    	1000        	TCV 	1.000006E+08	0           	;
 ~@V-~@AV-103    	I-V-~@AV-103    	O-V-~@AV-103    	1000        	TCV 	1.000006E+08	0           	;
 ~@V-~@AV-104    	I-V-~@AV-104    	O-V-~@AV-104    	1000        	TCV 	1.000006E+08	0           	;
 ~@V-~@AV-105    	I-V-~@AV-105    	O-V-~@AV-105    	1000        	TCV 	1.000006E+08	0           	;
 ~@V-~@AV-106    	I-V-~@AV-106    	O-V-~@AV-106    	1000        	TCV 	1.000006E+08	0           	;
 ~@V-~@AV-107    	I-V-~@AV-107    	O-V-~@AV-107    	1000        	TCV 	1.000006E+08	0           	;
 ~@V-~@AV-108    	I-V-~@AV-108    	O-V-~@AV-108    	1000        	TCV 	1.000006E+08	0           	;
 ~@V-~@AV-109    	I-V-~@AV-109    	O-V-~@AV-109    	1000        	TCV 	1.000006E+08	0           	;
 ~@V-~@AV-11     	I-V-~@AV-11     	O-V-~@AV-11     	1000        	TCV 	1.000006E+08	0           	;
 ~@V-~@AV-110    	I-V-~@AV-110    	O-V-~@AV-110    	1000        	TCV 	1.000006E+08	0           	;
 ~@V-~@AV-111    	I-V-~@AV-111    	O-V-~@AV-111    	1000        	TCV 	1.000006E+08	0           	;
 ~@V-~@AV-112    	I-V-~@AV-112    	O-V-~@AV-112    	1000        	TCV 	1.000006E+08	0           	;
 ~@V-~@AV-113    	I-V-~@AV-113    	O-V-~@AV-113    	1000        	TCV 	1.000006E+08	0           	;
 ~@V-~@AV-114    	I-V-~@AV-114    	O-V-~@AV-114    	1000        	TCV 	1.000006E+08	0           	;
 ~@V-~@AV-115    	I-V-~@AV-115    	O-V-~@AV-115    	1000        	TCV 	1.000006E+08	0           	;
 ~@V-~@AV-116    	I-V-~@AV-116    	O-V-~@AV-116    	1000        	TCV 	1.000006E+08	0           	;
 ~@V-~@AV-117    	I-V-~@AV-117    	O-V-~@AV-117    	1000        	TCV 	1.000006E+08	0           	;
 ~@V-~@AV-118    	I-V-~@AV-118    	O-V-~@AV-118    	1000        	TCV 	1.000006E+08	0           	;
 ~@V-~@AV-119    	I-V-~@AV-119    	O-V-~@AV-119    	1000        	TCV 	1.000006E+08	0           	;
 ~@V-~@AV-12     	I-V-~@AV-12     	O-V-~@AV-12     	1000        	TCV 	1.000006E+08	0           	;
 ~@V-~@AV-120    	I-V-~@AV-120    	O-V-~@AV-120    	1000        	TCV 	1.000006E+08	0           	;
 ~@V-~@AV-121    	I-V-~@AV-121    	O-V-~@AV-121    	1000        	TCV 	1.000006E+08	0           	;
 ~@V-~@AV-122    	I-V-~@AV-122    	O-V-~@AV-122    	1000        	TCV 	1.000006E+08	0           	;
 ~@V-~@AV-123    	I-V-~@AV-123    	O-V-~@AV-123    	1000        	TCV 	1.000006E+08	0           	;
 ~@V-~@AV-124    	I-V-~@AV-124    	O-V-~@AV-124    	1000        	TCV 	1.000006E+08	0           	;
 ~@V-~@AV-125    	I-V-~@AV-125    	O-V-~@AV-125    	1000        	TCV 	1.000006E+08	0           	;
 ~@V-~@AV-126    	I-V-~@AV-126    	O-V-~@AV-126    	1000        	TCV 	1.000006E+08	0           	;
 ~@V-~@AV-127    	I-V-~@AV-127    	O-V-~@AV-127    	1000        	TCV 	1.000006E+08	0           	;
 ~@V-~@AV-128    	I-V-~@AV-128    	O-V-~@AV-128    	1000        	TCV 	1.000006E+08	0           	;
 ~@V-~@AV-129    	I-V-~@AV-129    	O-V-~@AV-129    	1000        	TCV 	1.000006E+08	0           	;
 ~@V-~@AV-13     	I-V-~@AV-13     	O-V-~@AV-13     	1000        	TCV 	1.000006E+08	0           	;
 ~@V-~@AV-130    	I-V-~@AV-130    	O-V-~@AV-130    	1000        	TCV 	1.000006E+08	0           	;
 ~@V-~@AV-131    	I-V-~@AV-131    	O-V-~@AV-131    	1000        	TCV 	1.000006E+08	0           	;
 ~@V-~@AV-132    	I-V-~@AV-132    	O-V-~@AV-132    	1000        	TCV 	1.000006E+08	0           	;
 ~@V-~@AV-133    	I-V-~@AV-133    	O-V-~@AV-133    	1000        	TCV 	1.000006E+08	0           	;
 ~@V-~@AV-134    	I-V-~@AV-134    	O-V-~@AV-134    	1000        	TCV 	1.000006E+08	0           	;
 ~@V-~@AV-135    	I-V-~@AV-135    	O-V-~@AV-135    	1000        	TCV 	1.000006E+08	0           	;
 ~@V-~@AV-136    	I-V-~@AV-136    	O-V-~@AV-136    	1000        	TCV 	1.000006E+08	0           	;
 ~@V-~@AV-137    	I-V-~@AV-137    	O-V-~@AV-137    	1000        	TCV 	1.000006E+08	0           	;
 ~@V-~@AV-138    	I-V-~@AV-138    	O-V-~@AV-138    	1000        	TCV 	1.000006E+08	0           	;
 ~@V-~@AV-139    	I-V-~@AV-139    	O-V-~@AV-139    	1000        	TCV 	1.000006E+08	0           	;
 ~@V-~@AV-14     	I-V-~@AV-14     	O-V-~@AV-14     	1000        	TCV 	1.000006E+08	0           	;
 ~@V-~@AV-140    	I-V-~@AV-140    	O-V-~@AV-140    	1000        	TCV 	1.000006E+08	0           	;
 ~@V-~@AV-141    	I-V-~@AV-141    	O-V-~@AV-141    	1000        	TCV 	1.000006E+08	0           	;
 ~@V-~@AV-142    	I-V-~@AV-142    	O-V-~@AV-142    	1000        	TCV 	1.000006E+08	0           	;
 ~@V-~@AV-143    	I-V-~@AV-143    	O-V-~@AV-143    	1000        	TCV 	1.000006E+08	0           	;
 ~@V-~@AV-144    	I-V-~@AV-144    	O-V-~@AV-144    	1000        	TCV 	1.000006E+08	0           	;
 ~@V-~@AV-145    	I-V-~@AV-145    	O-V-~@AV-145    	1000        	TCV 	1.000006E+08	0           	;
 ~@V-~@AV-146    	I-V-~@AV-146    	O-V-~@AV-146    	1000        	TCV 	1.000006E+08	0           	;
 ~@V-~@AV-147    	I-V-~@AV-147    	O-V-~@AV-147    	1000        	TCV 	1.000006E+08	0           	;
 ~@V-~@AV-148    	I-V-~@AV-148    	O-V-~@AV-148    	1000        	TCV 	1.000006E+08	0           	;
 ~@V-~@AV-149    	I-V-~@AV-149    	O-V-~@AV-149    	1000        	TCV 	1.000006E+08	0           	;
 ~@V-~@AV-15     	I-V-~@AV-15     	O-V-~@AV-15     	1000        	TCV 	1.000006E+08	0           	;
 ~@V-~@AV-150    	I-V-~@AV-150    	O-V-~@AV-150    	1000        	TCV 	1.000006E+08	0           	;
 ~@V-~@AV-151    	I-V-~@AV-151    	O-V-~@AV-151    	1000        	TCV 	1.000006E+08	0           	;
 ~@V-~@AV-152    	I-V-~@AV-152    	O-V-~@AV-152    	1000        	TCV 	1.000006E+08	0           	;
 ~@V-~@AV-153    	I-V-~@AV-153    	O-V-~@AV-153    	1000        	TCV 	1.000006E+08	0           	;
 ~@V-~@AV-154    	I-V-~@AV-154    	O-V-~@AV-154    	1000        	TCV 	1.000006E+08	0           	;
 ~@V-~@AV-155    	I-V-~@AV-155    	O-V-~@AV-155    	1000        	TCV 	1.000006E+08	0           	;
 ~@V-~@AV-156    	I-V-~@AV-156    	O-V-~@AV-156    	1000        	TCV 	1.000006E+08	0           	;
 ~@V-~@AV-157    	I-V-~@AV-157    	O-V-~@AV-157    	1000        	TCV 	1.000006E+08	0           	;
 ~@V-~@AV-158    	I-V-~@AV-158    	O-V-~@AV-158    	1000        	TCV 	1.000006E+08	0           	;
 ~@V-~@AV-159    	I-V-~@AV-159    	O-V-~@AV-159    	1000        	TCV 	1.000006E+08	0           	;
 ~@V-~@AV-16     	I-V-~@AV-16     	O-V-~@AV-16     	1000        	TCV 	1.000006E+08	0           	;
 ~@V-~@AV-160    	I-V-~@AV-160    	O-V-~@AV-160    	1000        	TCV 	1.000006E+08	0           	;
 ~@V-~@AV-161    	I-V-~@AV-161    	O-V-~@AV-161    	1000        	TCV 	1.000006E+08	0           	;
 ~@V-~@AV-162    	I-V-~@AV-162    	O-V-~@AV-162    	1000        	TCV 	1.000006E+08	0           	;
 ~@V-~@AV-163    	I-V-~@AV-163    	O-V-~@AV-163    	1000        	TCV 	1.000006E+08	0           	;
 ~@V-~@AV-164    	I-V-~@AV-164    	O-V-~@AV-164    	1000        	TCV 	1.000006E+08	0           	;
 ~@V-~@AV-165    	I-V-~@AV-165    	O-V-~@AV-165    	1000        	TCV 	1.000006E+08	0           	;
 ~@V-~@AV-166    	I-V-~@AV-166    	O-V-~@AV-166    	1000        	TCV 	1.000006E+08	0           	;
 ~@V-~@AV-167    	I-V-~@AV-167    	O-V-~@AV-167    	1000        	TCV 	1.000006E+08	0           	;
 ~@V-~@AV-168    	I-V-~@AV-168    	O-V-~@AV-168    	1000        	TCV 	1.000006E+08	0           	;
 ~@V-~@AV-169    	I-V-~@AV-169    	O-V-~@AV-169    	1000        	TCV 	1.000006E+08	0           	;
 ~@V-~@AV-17     	I-V-~@AV-17     	O-V-~@AV-17     	1000        	TCV 	1.000006E+08	0           	;
 ~@V-~@AV-170    	I-V-~@AV-170    	O-V-~@AV-170    	1000        	TCV 	1.000006E+08	0           	;
 ~@V-~@AV-171    	I-V-~@AV-171    	O-V-~@AV-171    	1000        	TCV 	1.000006E+08	0           	;
 ~@V-~@AV-172    	I-V-~@AV-172    	O-V-~@AV-172    	1000        	TCV 	1.000006E+08	0           	;
 ~@V-~@AV-173    	I-V-~@AV-173    	O-V-~@AV-173    	1000        	TCV 	1.000006E+08	0           	;
 ~@V-~@AV-174    	I-V-~@AV-174    	O-V-~@AV-174    	1000        	TCV 	1.000006E+08	0           	;
 ~@V-~@AV-175    	I-V-~@AV-175    	O-V-~@AV-175    	1000        	TCV 	1.000006E+08	0           	;
 ~@V-~@AV-176    	I-V-~@AV-176    	O-V-~@AV-176    	1000        	TCV 	1.000006E+08	0           	;
 ~@V-~@AV-177    	I-V-~@AV-177    	O-V-~@AV-177    	1000        	TCV 	1.000006E+08	0           	;
 ~@V-~@AV-178    	I-V-~@AV-178    	O-V-~@AV-178    	1000        	TCV 	1.000006E+08	0           	;
 ~@V-~@AV-179    	I-V-~@AV-179    	O-V-~@AV-179    	1000        	TCV 	1.000006E+08	0           	;
 ~@V-~@AV-18     	I-V-~@AV-18     	O-V-~@AV-18     	1000        	TCV 	1.000006E+08	0           	;
 ~@V-~@AV-180    	I-V-~@AV-180    	O-V-~@AV-180    	1000        	TCV 	1.000006E+08	0           	;
 ~@V-~@AV-181    	I-V-~@AV-181    	O-V-~@AV-181    	1000        	TCV 	1.000006E+08	0           	;
 ~@V-~@AV-182    	I-V-~@AV-182    	O-V-~@AV-182    	1000        	TCV 	1.000006E+08	0           	;
 ~@V-~@AV-183    	I-V-~@AV-183    	O-V-~@AV-183    	1000        	TCV 	1.000006E+08	0           	;
 ~@V-~@AV-184    	I-V-~@AV-184    	O-V-~@AV-184    	1000        	TCV 	1.000006E+08	0           	;
 ~@V-~@AV-185    	I-V-~@AV-185    	O-V-~@AV-185    	1000        	TCV 	1.000006E+08	0           	;
 ~@V-~@AV-186    	I-V-~@AV-186    	O-V-~@AV-186    	1000        	TCV 	1.000006E+08	0           	;
 ~@V-~@AV-187    	I-V-~@AV-187    	O-V-~@AV-187    	1000        	TCV 	1.000006E+08	0           	;
 ~@V-~@AV-188    	I-V-~@AV-188    	O-V-~@AV-188    	1000        	TCV 	1.000006E+08	0           	;
 ~@V-~@AV-189    	I-V-~@AV-189    	O-V-~@AV-189    	1000        	TCV 	1.000006E+08	0           	;
 ~@V-~@AV-19     	I-V-~@AV-19     	O-V-~@AV-19     	1000        	TCV 	1.000006E+08	0           	;
 ~@V-~@AV-190    	I-V-~@AV-190    	O-V-~@AV-190    	1000        	TCV 	1.000006E+08	0           	;
 ~@V-~@AV-191    	I-V-~@AV-191    	O-V-~@AV-191    	1000        	TCV 	1.000006E+08	0           	;
 ~@V-~@AV-192    	I-V-~@AV-192    	O-V-~@AV-192    	1000        	TCV 	1.000006E+08	0           	;
 ~@V-~@AV-193    	I-V-~@AV-193    	O-V-~@AV-193    	1000        	TCV 	1.000006E+08	0           	;
 ~@V-~@AV-194    	I-V-~@AV-194    	O-V-~@AV-194    	1000        	TCV 	1.000006E+08	0           	;
 ~@V-~@AV-195    	I-V-~@AV-195    	O-V-~@AV-195    	1000        	TCV 	1.000006E+08	0           	;
 ~@V-~@AV-196    	I-V-~@AV-196    	O-V-~@AV-196    	1000        	TCV 	1.000006E+08	0           	;
 ~@V-~@AV-197    	I-V-~@AV-197    	O-V-~@AV-197    	1000        	TCV 	1.000006E+08	0           	;
 ~@V-~@AV-198    	I-V-~@AV-198    	O-V-~@AV-198    	1000        	TCV 	1.000006E+08	0           	;
 ~@V-~@AV-199    	I-V-~@AV-199    	O-V-~@AV-199    	1000        	TCV 	1.000006E+08	0           	;
 ~@V-~@AV-2      	I-V-~@AV-2      	O-V-~@AV-2      	1000        	TCV 	1.000006E+08	0           	;
 ~@V-~@AV-20     	I-V-~@AV-20     	O-V-~@AV-20     	1000        	TCV 	1.000006E+08	0           	;
 ~@V-~@AV-200    	I-V-~@AV-200    	O-V-~@AV-200    	1000        	TCV 	1.000006E+08	0           	;
 ~@V-~@AV-201    	I-V-~@AV-201    	O-V-~@AV-201    	1000        	TCV 	1.000006E+08	0           	;
 ~@V-~@AV-202    	I-V-~@AV-202    	O-V-~@AV-202    	1000        	TCV 	1.000006E+08	0           	;
 ~@V-~@AV-204    	I-V-~@AV-204    	O-V-~@AV-204    	1000        	TCV 	1.000006E+08	0           	;
 ~@V-~@AV-205    	I-V-~@AV-205    	O-V-~@AV-205    	1000        	TCV 	1.000006E+08	0           	;
 ~@V-~@AV-206    	I-V-~@AV-206    	O-V-~@AV-206    	1000        	TCV 	1.000006E+08	0           	;
 ~@V-~@AV-207    	I-V-~@AV-207    	O-V-~@AV-207    	1000        	TCV 	1.000006E+08	0           	;
 ~@V-~@AV-208    	I-V-~@AV-208    	O-V-~@AV-208    	1000        	TCV 	1.000006E+08	0           	;
 ~@V-~@AV-209    	I-V-~@AV-209    	O-V-~@AV-209    	1000        	TCV 	1.000006E+08	0           	;
 ~@V-~@AV-21     	I-V-~@AV-21     	O-V-~@AV-21     	1000        	TCV 	1.000006E+08	0           	;
 ~@V-~@AV-210    	I-V-~@AV-210    	O-V-~@AV-210    	1000        	TCV 	1.000006E+08	0           	;
 ~@V-~@AV-211    	I-V-~@AV-211    	O-V-~@AV-211    	1000        	TCV 	1.000006E+08	0           	;
 ~@V-~@AV-212    	I-V-~@AV-212    	O-V-~@AV-212    	1000        	TCV 	1.000006E+08	0           	;
 ~@V-~@AV-213    	I-V-~@AV-213    	O-V-~@AV-213    	1000        	TCV 	1.000006E+08	0           	;
 ~@V-~@AV-214    	I-V-~@AV-214    	O-V-~@AV-214    	1000        	TCV 	1.000006E+08	0           	;
 ~@V-~@AV-215    	I-V-~@AV-215    	O-V-~@AV-215    	1000        	TCV 	1.000006E+08	0           	;
 ~@V-~@AV-216    	I-V-~@AV-216    	O-V-~@AV-216    	1000        	TCV 	1.000006E+08	0           	;
 ~@V-~@AV-217    	I-V-~@AV-217    	O-V-~@AV-217    	1000        	TCV 	1.000006E+08	0           	;
 ~@V-~@AV-218    	I-V-~@AV-218    	O-V-~@AV-218    	1000        	TCV 	1.000006E+08	0           	;
 ~@V-~@AV-219    	I-V-~@AV-219    	O-V-~@AV-219    	1000        	TCV 	1.000006E+08	0           	;
 ~@V-~@AV-22     	I-V-~@AV-22     	O-V-~@AV-22     	1000        	TCV 	1.000006E+08	0           	;
 ~@V-~@AV-220    	I-V-~@AV-220    	O-V-~@AV-220    	1000        	TCV 	1.000006E+08	0           	;
 ~@V-~@AV-221    	I-V-~@AV-221    	O-V-~@AV-221    	1000        	TCV 	1.000006E+08	0           	;
 ~@V-~@AV-222    	I-V-~@AV-222    	O-V-~@AV-222    	1000        	TCV 	1.000006E+08	0           	;
 ~@V-~@AV-223    	I-V-~@AV-223    	O-V-~@AV-223    	1000        	TCV 	1.000006E+08	0           	;
 ~@V-~@AV-224    	I-V-~@AV-224    	O-V-~@AV-224    	1000        	TCV 	1.000006E+08	0           	;
 ~@V-~@AV-225    	I-V-~@AV-225    	O-V-~@AV-225    	1000        	TCV 	1.000006E+08	0           	;
 ~@V-~@AV-226    	I-V-~@AV-226    	O-V-~@AV-226    	1000        	TCV 	1.000006E+08	0           	;
 ~@V-~@AV-227    	I-V-~@AV-227    	O-V-~@AV-227    	1000        	TCV 	1.000006E+08	0           	;
 ~@V-~@AV-228    	I-V-~@AV-228    	O-V-~@AV-228    	1000        	TCV 	1.000006E+08	0           	;
 ~@V-~@AV-229    	I-V-~@AV-229    	O-V-~@AV-229    	1000        	TCV 	1.000006E+08	0           	;
 ~@V-~@AV-23     	I-V-~@AV-23     	O-V-~@AV-23     	1000        	TCV 	1.000006E+08	0           	;
 ~@V-~@AV-230    	I-V-~@AV-230    	O-V-~@AV-230    	1000        	TCV 	1.000006E+08	0           	;
 ~@V-~@AV-231    	I-V-~@AV-231    	O-V-~@AV-231    	1000        	TCV 	1.000006E+08	0           	;
 ~@V-~@AV-232    	I-V-~@AV-232    	O-V-~@AV-232    	1000        	TCV 	1.000006E+08	0           	;
 ~@V-~@AV-233    	I-V-~@AV-233    	O-V-~@AV-233    	1000        	TCV 	1.000006E+08	0           	;
 ~@V-~@AV-234    	I-V-~@AV-234    	O-V-~@AV-234    	1000        	TCV 	1.000006E+08	0           	;
 ~@V-~@AV-235    	I-V-~@AV-235    	O-V-~@AV-235    	1000        	TCV 	1.000006E+08	0           	;
 ~@V-~@AV-236    	I-V-~@AV-236    	O-V-~@AV-236    	1000        	TCV 	1.000006E+08	0           	;
 ~@V-~@AV-237    	I-V-~@AV-237    	O-V-~@AV-237    	1000        	TCV 	1.000006E+08	0           	;
 ~@V-~@AV-238    	I-V-~@AV-238    	O-V-~@AV-238    	1000        	TCV 	1.000006E+08	0           	;
 ~@V-~@AV-239    	I-V-~@AV-239    	O-V-~@AV-239    	1000        	TCV 	1.000006E+08	0           	;
 ~@V-~@AV-24     	I-V-~@AV-24     	O-V-~@AV-24     	1000        	TCV 	1.000006E+08	0           	;
 ~@V-~@AV-240    	I-V-~@AV-240    	O-V-~@AV-240    	1000        	TCV 	1.000006E+08	0           	;
 ~@V-~@AV-241    	I-V-~@AV-241    	O-V-~@AV-241    	1000        	TCV 	1.000006E+08	0           	;
 ~@V-~@AV-242    	I-V-~@AV-242    	O-V-~@AV-242    	1000        	TCV 	1.000006E+08	0           	;
 ~@V-~@AV-243    	I-V-~@AV-243    	O-V-~@AV-243    	1000        	TCV 	1.000006E+08	0           	;
 ~@V-~@AV-244    	I-V-~@AV-244    	O-V-~@AV-244    	1000        	TCV 	1.000006E+08	0           	;
 ~@V-~@AV-245    	I-V-~@AV-245    	O-V-~@AV-245    	1000        	TCV 	1.000006E+08	0           	;
 ~@V-~@AV-246    	I-V-~@AV-246    	O-V-~@AV-246    	1000        	TCV 	1.000006E+08	0           	;
 ~@V-~@AV-247    	I-V-~@AV-247    	O-V-~@AV-247    	1000        	TCV 	1.000006E+08	0           	;
 ~@V-~@AV-248    	I-V-~@AV-248    	O-V-~@AV-248    	1000        	TCV 	1.000006E+08	0           	;
 ~@V-~@AV-249    	I-V-~@AV-249    	O-V-~@AV-249    	1000        	TCV 	1.000006E+08	0           	;
 ~@V-~@AV-25     	I-V-~@AV-25     	O-V-~@AV-25     	1000        	TCV 	1.000006E+08	0           	;
 ~@V-~@AV-250    	I-V-~@AV-250    	O-V-~@AV-250    	1000        	TCV 	1.000006E+08	0           	;
 ~@V-~@AV-251    	I-V-~@AV-251    	O-V-~@AV-251    	1000        	TCV 	1.000006E+08	0           	;
 ~@V-~@AV-252    	I-V-~@AV-252    	O-V-~@AV-252    	1000        	TCV 	1.000006E+08	0           	;
 ~@V-~@AV-253    	I-V-~@AV-253    	O-V-~@AV-253    	1000        	TCV 	1.000006E+08	0           	;
 ~@V-~@AV-254    	I-V-~@AV-254    	O-V-~@AV-254    	1000        	TCV 	1.000006E+08	0           	;
 ~@V-~@AV-255    	I-V-~@AV-255    	O-V-~@AV-255    	1000        	TCV 	1.000006E+08	0           	;
 ~@V-~@AV-256    	I-V-~@AV-256    	O-V-~@AV-256    	1000        	TCV 	1.000006E+08	0           	;
 ~@V-~@AV-257    	I-V-~@AV-257    	O-V-~@AV-257    	1000        	TCV 	1.000006E+08	0           	;
 ~@V-~@AV-258    	I-V-~@AV-258    	O-V-~@AV-258    	1000        	TCV 	1.000006E+08	0           	;
 ~@V-~@AV-259    	I-V-~@AV-259    	O-V-~@AV-259    	1000        	TCV 	1.000006E+08	0           	;
 ~@V-~@AV-26     	I-V-~@AV-26     	O-V-~@AV-26     	1000        	TCV 	1.000006E+08	0           	;
 ~@V-~@AV-260    	I-V-~@AV-260    	O-V-~@AV-260    	1000        	TCV 	1.000006E+08	0           	;
 ~@V-~@AV-261    	I-V-~@AV-261    	O-V-~@AV-261    	1000        	TCV 	1.000006E+08	0           	;
 ~@V-~@AV-262    	I-V-~@AV-262    	O-V-~@AV-262    	1000        	TCV 	1.000006E+08	0           	;
 ~@V-~@AV-263    	I-V-~@AV-263    	O-V-~@AV-263    	1000        	TCV 	1.000006E+08	0           	;
 ~@V-~@AV-264    	I-V-~@AV-264    	O-V-~@AV-264    	1000        	TCV 	1.000006E+08	0           	;
 ~@V-~@AV-265    	I-V-~@AV-265    	O-V-~@AV-265    	1000        	TCV 	1.000006E+08	0           	;
 ~@V-~@AV-266    	I-V-~@AV-266    	O-V-~@AV-266    	1000        	TCV 	1.000006E+08	0           	;
 ~@V-~@AV-267    	I-V-~@AV-267    	O-V-~@AV-267    	1000        	TCV 	1.000006E+08	0           	;
 ~@V-~@AV-268    	I-V-~@AV-268    	O-V-~@AV-268    	1000        	TCV 	1.000006E+08	0           	;
 ~@V-~@AV-269    	I-V-~@AV-269    	O-V-~@AV-269    	1000        	TCV 	1.000006E+08	0           	;
 ~@V-~@AV-27     	I-V-~@AV-27     	O-V-~@AV-27     	1000        	TCV 	1.000006E+08	0           	;
 ~@V-~@AV-270    	I-V-~@AV-270    	O-V-~@AV-270    	1000        	TCV 	1.000006E+08	0           	;
 ~@V-~@AV-271    	I-V-~@AV-271    	O-V-~@AV-271    	1000        	TCV 	1.000006E+08	0           	;
 ~@V-~@AV-272    	I-V-~@AV-272    	O-V-~@AV-272    	1000        	TCV 	1.000006E+08	0           	;
 ~@V-~@AV-273    	I-V-~@AV-273    	O-V-~@AV-273    	1000        	TCV 	1.000006E+08	0           	;
 ~@V-~@AV-274    	I-V-~@AV-274    	O-V-~@AV-274    	1000        	TCV 	1.000006E+08	0           	;
 ~@V-~@AV-275    	I-V-~@AV-275    	O-V-~@AV-275    	1000        	TCV 	1.000006E+08	0           	;
 ~@V-~@AV-276    	I-V-~@AV-276    	O-V-~@AV-276    	1000        	TCV 	1.000006E+08	0           	;
 ~@V-~@AV-277    	I-V-~@AV-277    	O-V-~@AV-277    	1000        	TCV 	1.000006E+08	0           	;
 ~@V-~@AV-278    	I-V-~@AV-278    	O-V-~@AV-278    	1000        	TCV 	1.000006E+08	0           	;
 ~@V-~@AV-279    	I-V-~@AV-279    	O-V-~@AV-279    	1000        	TCV 	1.000006E+08	0           	;
 ~@V-~@AV-28     	I-V-~@AV-28     	O-V-~@AV-28     	1000        	TCV 	1.000006E+08	0           	;
 ~@V-~@AV-280    	I-V-~@AV-280    	O-V-~@AV-280    	1000        	TCV 	1.000006E+08	0           	;
 ~@V-~@AV-281    	I-V-~@AV-281    	O-V-~@AV-281    	1000        	TCV 	1.000006E+08	0           	;
 ~@V-~@AV-282    	I-V-~@AV-282    	O-V-~@AV-282    	1000        	TCV 	1.000006E+08	0           	;
 ~@V-~@AV-283    	I-V-~@AV-283    	O-V-~@AV-283    	1000        	TCV 	1.000006E+08	0           	;
 ~@V-~@AV-284    	I-V-~@AV-284    	O-V-~@AV-284    	1000        	TCV 	1.000006E+08	0           	;
 ~@V-~@AV-285    	I-V-~@AV-285    	O-V-~@AV-285    	1000        	TCV 	1.000006E+08	0           	;
 ~@V-~@AV-286    	I-V-~@AV-286    	O-V-~@AV-286    	1000        	TCV 	1.000006E+08	0           	;
 ~@V-~@AV-287    	I-V-~@AV-287    	O-V-~@AV-287    	1000        	TCV 	1.000006E+08	0           	;
 ~@V-~@AV-288    	I-V-~@AV-288    	O-V-~@AV-288    	1000        	TCV 	1.000006E+08	0           	;
 ~@V-~@AV-289    	I-V-~@AV-289    	O-V-~@AV-289    	1000        	TCV 	1.000006E+08	0           	;
 ~@V-~@AV-29     	I-V-~@AV-29     	O-V-~@AV-29     	1000        	TCV 	1.000006E+08	0           	;
 ~@V-~@AV-290    	I-V-~@AV-290    	O-V-~@AV-290    	1000        	TCV 	1.000006E+08	0           	;
 ~@V-~@AV-291    	I-V-~@AV-291    	O-V-~@AV-291    	1000        	TCV 	1.000006E+08	0           	;
 ~@V-~@AV-292    	I-V-~@AV-292    	O-V-~@AV-292    	1000        	TCV 	1.000006E+08	0           	;
 ~@V-~@AV-293    	I-V-~@AV-293    	O-V-~@AV-293    	1000        	TCV 	1.000006E+08	0           	;
 ~@V-~@AV-294    	I-V-~@AV-294    	O-V-~@AV-294    	1000        	TCV 	1.000006E+08	0           	;
 ~@V-~@AV-295    	I-V-~@AV-295    	O-V-~@AV-295    	1000        	TCV 	1.000006E+08	0           	;
 ~@V-~@AV-296    	I-V-~@AV-296    	O-V-~@AV-296    	1000        	TCV 	1.000006E+08	0           	;
 ~@V-~@AV-297    	I-V-~@AV-297    	O-V-~@AV-297    	1000        	TCV 	1.000006E+08	0           	;
 ~@V-~@AV-298    	I-V-~@AV-298    	O-V-~@AV-298    	1000        	TCV 	1.000006E+08	0           	;
 ~@V-~@AV-299    	I-V-~@AV-299    	O-V-~@AV-299    	1000        	TCV 	1.000006E+08	0           	;
 ~@V-~@AV-3      	I-V-~@AV-3      	O-V-~@AV-3      	1000        	TCV 	1.000006E+08	0           	;
 ~@V-~@AV-30     	I-V-~@AV-30     	O-V-~@AV-30     	1000        	TCV 	1.000006E+08	0           	;
 ~@V-~@AV-300    	I-V-~@AV-300    	O-V-~@AV-300    	1000        	TCV 	1.000006E+08	0           	;
 ~@V-~@AV-301    	I-V-~@AV-301    	O-V-~@AV-301    	1000        	TCV 	1.000006E+08	0           	;
 ~@V-~@AV-302    	I-V-~@AV-302    	O-V-~@AV-302    	1000        	TCV 	1.000006E+08	0           	;
 ~@V-~@AV-303    	I-V-~@AV-303    	O-V-~@AV-303    	1000        	TCV 	1.000006E+08	0           	;
 ~@V-~@AV-304    	I-V-~@AV-304    	O-V-~@AV-304    	1000        	TCV 	1.000006E+08	0           	;
 ~@V-~@AV-305    	I-V-~@AV-305    	O-V-~@AV-305    	1000        	TCV 	1.000006E+08	0           	;
 ~@V-~@AV-306    	I-V-~@AV-306    	O-V-~@AV-306    	1000        	TCV 	1.000006E+08	0           	;
 ~@V-~@AV-307    	I-V-~@AV-307    	O-V-~@AV-307    	1000        	TCV 	1.000006E+08	0           	;
 ~@V-~@AV-308    	I-V-~@AV-308    	O-V-~@AV-308    	1000        	TCV 	1.000006E+08	0           	;
 ~@V-~@AV-309    	I-V-~@AV-309    	O-V-~@AV-309    	1000        	TCV 	1.000006E+08	0           	;
 ~@V-~@AV-31     	I-V-~@AV-31     	O-V-~@AV-31     	1000        	TCV 	1.000006E+08	0           	;
 ~@V-~@AV-310    	I-V-~@AV-310    	O-V-~@AV-310    	1000        	TCV 	1.000006E+08	0           	;
 ~@V-~@AV-311    	I-V-~@AV-311    	O-V-~@AV-311    	1000        	TCV 	1.000006E+08	0           	;
 ~@V-~@AV-312    	I-V-~@AV-312    	O-V-~@AV-312    	1000        	TCV 	1.000006E+08	0           	;
 ~@V-~@AV-313    	I-V-~@AV-313    	O-V-~@AV-313    	1000        	TCV 	1.000006E+08	0           	;
 ~@V-~@AV-314    	I-V-~@AV-314    	O-V-~@AV-314    	1000        	TCV 	1.000006E+08	0           	;
 ~@V-~@AV-315    	I-V-~@AV-315    	O-V-~@AV-315    	1000        	TCV 	1.000006E+08	0           	;
 ~@V-~@AV-316    	I-V-~@AV-316    	O-V-~@AV-316    	1000        	TCV 	1.000006E+08	0           	;
 ~@V-~@AV-317    	I-V-~@AV-317    	O-V-~@AV-317    	1000        	TCV 	1.000006E+08	0           	;
 ~@V-~@AV-318    	I-V-~@AV-318    	O-V-~@AV-318    	1000        	TCV 	1.000006E+08	0           	;
 ~@V-~@AV-319    	I-V-~@AV-319    	O-V-~@AV-319    	1000        	TCV 	1.000006E+08	0           	;
 ~@V-~@AV-32     	I-V-~@AV-32     	O-V-~@AV-32     	1000        	TCV 	1.000006E+08	0           	;
 ~@V-~@AV-320    	I-V-~@AV-320    	O-V-~@AV-320    	1000        	TCV 	1.000006E+08	0           	;
 ~@V-~@AV-321    	I-V-~@AV-321    	O-V-~@AV-321    	1000        	TCV 	1.000006E+08	0           	;
 ~@V-~@AV-322    	I-V-~@AV-322    	O-V-~@AV-322    	1000        	TCV 	1.000006E+08	0           	;
 ~@V-~@AV-323    	I-V-~@AV-323    	O-V-~@AV-323    	1000        	TCV 	1.000006E+08	0           	;
 ~@V-~@AV-324    	I-V-~@AV-324    	O-V-~@AV-324    	1000        	TCV 	1.000006E+08	0           	;
 ~@V-~@AV-325    	I-V-~@AV-325    	O-V-~@AV-325    	1000        	TCV 	1.000006E+08	0           	;
 ~@V-~@AV-326    	I-V-~@AV-326    	O-V-~@AV-326    	1000        	TCV 	1.000006E+08	0           	;
 ~@V-~@AV-327    	I-V-~@AV-327    	O-V-~@AV-327    	1000        	TCV 	1.000006E+08	0           	;
 ~@V-~@AV-328    	I-V-~@AV-328    	O-V-~@AV-328    	1000        	TCV 	1.000006E+08	0           	;
 ~@V-~@AV-329    	I-V-~@AV-329    	O-V-~@AV-329    	1000        	TCV 	1.000006E+08	0           	;
 ~@V-~@AV-33     	I-V-~@AV-33     	O-V-~@AV-33     	1000        	TCV 	1.000006E+08	0           	;
 ~@V-~@AV-330    	I-V-~@AV-330    	O-V-~@AV-330    	1000        	TCV 	1.000006E+08	0           	;
 ~@V-~@AV-331    	I-V-~@AV-331    	O-V-~@AV-331    	1000        	TCV 	1.000006E+08	0           	;
 ~@V-~@AV-332    	I-V-~@AV-332    	O-V-~@AV-332    	1000        	TCV 	1.000006E+08	0           	;
 ~@V-~@AV-333    	I-V-~@AV-333    	O-V-~@AV-333    	1000        	TCV 	1.000006E+08	0           	;
 ~@V-~@AV-334    	I-V-~@AV-334    	O-V-~@AV-334    	1000        	TCV 	1.000006E+08	0           	;
 ~@V-~@AV-335    	I-V-~@AV-335    	O-V-~@AV-335    	1000        	TCV 	1.000006E+08	0           	;
 ~@V-~@AV-336    	I-V-~@AV-336    	O-V-~@AV-336    	1000        	TCV 	1.000006E+08	0           	;
 ~@V-~@AV-337    	I-V-~@AV-337    	O-V-~@AV-337    	1000        	TCV 	1.000006E+08	0           	;
 ~@V-~@AV-338    	I-V-~@AV-338    	O-V-~@AV-338    	1000        	TCV 	1.000006E+08	0           	;
 ~@V-~@AV-339    	I-V-~@AV-339    	O-V-~@AV-339    	1000        	TCV 	1.000006E+08	0           	;
 ~@V-~@AV-34     	I-V-~@AV-34     	O-V-~@AV-34     	1000        	TCV 	1.000006E+08	0           	;
 ~@V-~@AV-340    	I-V-~@AV-340    	O-V-~@AV-340    	1000        	TCV 	1.000006E+08	0           	;
 ~@V-~@AV-341    	I-V-~@AV-341    	O-V-~@AV-341    	1000        	TCV 	1.000006E+08	0           	;
 ~@V-~@AV-342    	I-V-~@AV-342    	O-V-~@AV-342    	1000        	TCV 	1.000006E+08	0           	;
 ~@V-~@AV-343    	I-V-~@AV-343    	O-V-~@AV-343    	1000        	TCV 	1.000006E+08	0           	;
 ~@V-~@AV-344    	I-V-~@AV-344    	O-V-~@AV-344    	1000        	TCV 	1.000006E+08	0           	;
 ~@V-~@AV-345    	I-V-~@AV-345    	O-V-~@AV-345    	1000        	TCV 	1.000006E+08	0           	;
 ~@V-~@AV-346    	I-V-~@AV-346    	O-V-~@AV-346    	1000        	TCV 	1.000006E+08	0           	;
 ~@V-~@AV-347    	I-V-~@AV-347    	O-V-~@AV-347    	1000        	TCV 	1.000006E+08	0           	;
 ~@V-~@AV-348    	I-V-~@AV-348    	O-V-~@AV-348    	1000        	TCV 	1.000006E+08	0           	;
 ~@V-~@AV-349    	I-V-~@AV-349    	O-V-~@AV-349    	1000        	TCV 	1.000006E+08	0           	;
 ~@V-~@AV-35     	I-V-~@AV-35     	O-V-~@AV-35     	1000        	TCV 	1.000006E+08	0           	;
 ~@V-~@AV-350    	I-V-~@AV-350    	O-V-~@AV-350    	1000        	TCV 	1.000006E+08	0           	;
 ~@V-~@AV-351    	I-V-~@AV-351    	O-V-~@AV-351    	1000        	TCV 	1.000006E+08	0           	;
 ~@V-~@AV-352    	I-V-~@AV-352    	O-V-~@AV-352    	1000        	TCV 	1.000006E+08	0           	;
 ~@V-~@AV-353    	I-V-~@AV-353    	O-V-~@AV-353    	1000        	TCV 	1.000006E+08	0           	;
 ~@V-~@AV-354    	I-V-~@AV-354    	O-V-~@AV-354    	1000        	TCV 	1.000006E+08	0           	;
 ~@V-~@AV-355    	I-V-~@AV-355    	O-V-~@AV-355    	1000        	TCV 	1.000006E+08	0           	;
 ~@V-~@AV-356    	I-V-~@AV-356    	O-V-~@AV-356    	1000        	TCV 	1.000006E+08	0           	;
 ~@V-~@AV-357    	I-V-~@AV-357    	O-V-~@AV-357    	1000        	TCV 	1.000006E+08	0           	;
 ~@V-~@AV-358    	I-V-~@AV-358    	O-V-~@AV-358    	1000        	TCV 	1.000006E+08	0           	;
 ~@V-~@AV-359    	I-V-~@AV-359    	O-V-~@AV-359    	1000        	TCV 	1.000006E+08	0           	;
 ~@V-~@AV-36     	I-V-~@AV-36     	O-V-~@AV-36     	1000        	TCV 	1.000006E+08	0           	;
 ~@V-~@AV-360    	I-V-~@AV-360    	O-V-~@AV-360    	1000        	TCV 	1.000006E+08	0           	;
 ~@V-~@AV-361    	I-V-~@AV-361    	O-V-~@AV-361    	1000        	TCV 	1.000006E+08	0           	;
 ~@V-~@AV-362    	I-V-~@AV-362    	O-V-~@AV-362    	1000        	TCV 	1.000006E+08	0           	;
 ~@V-~@AV-363    	I-V-~@AV-363    	O-V-~@AV-363    	1000        	TCV 	1.000006E+08	0           	;
 ~@V-~@AV-364    	I-V-~@AV-364    	O-V-~@AV-364    	1000        	TCV 	1.000006E+08	0           	;
 ~@V-~@AV-365    	I-V-~@AV-365    	O-V-~@AV-365    	1000        	TCV 	1.000006E+08	0           	;
 ~@V-~@AV-366    	I-V-~@AV-366    	O-V-~@AV-366    	1000        	TCV 	1.000006E+08	0           	;
 ~@V-~@AV-367    	I-V-~@AV-367    	O-V-~@AV-367    	1000        	TCV 	1.000006E+08	0           	;
 ~@V-~@AV-368    	I-V-~@AV-368    	O-V-~@AV-368    	1000        	TCV 	1.000006E+08	0           	;
 ~@V-~@AV-369    	I-V-~@AV-369    	O-V-~@AV-369    	1000        	TCV 	1.000006E+08	0           	;
 ~@V-~@AV-37     	I-V-~@AV-37     	O-V-~@AV-37     	1000        	TCV 	1.000006E+08	0           	;
 ~@V-~@AV-370    	I-V-~@AV-370    	O-V-~@AV-370    	1000        	TCV 	1.000006E+08	0           	;
 ~@V-~@AV-371    	I-V-~@AV-371    	O-V-~@AV-371    	1000        	TCV 	1.000006E+08	0           	;
 ~@V-~@AV-372    	I-V-~@AV-372    	O-V-~@AV-372    	1000        	TCV 	1.000006E+08	0           	;
 ~@V-~@AV-373    	I-V-~@AV-373    	O-V-~@AV-373    	1000        	TCV 	1.000006E+08	0           	;
 ~@V-~@AV-374    	I-V-~@AV-374    	O-V-~@AV-374    	1000        	TCV 	1.000006E+08	0           	;
 ~@V-~@AV-375    	I-V-~@AV-375    	O-V-~@AV-375    	1000        	TCV 	1.000006E+08	0           	;
 ~@V-~@AV-376    	I-V-~@AV-376    	O-V-~@AV-376    	1000        	TCV 	1.000006E+08	0           	;
 ~@V-~@AV-377    	I-V-~@AV-377    	O-V-~@AV-377    	1000        	TCV 	1.000006E+08	0           	;
 ~@V-~@AV-378    	I-V-~@AV-378    	O-V-~@AV-378    	1000        	TCV 	1.000006E+08	0           	;
 ~@V-~@AV-379    	I-V-~@AV-379    	O-V-~@AV-379    	1000        	TCV 	1.000006E+08	0           	;
 ~@V-~@AV-38     	I-V-~@AV-38     	O-V-~@AV-38     	1000        	TCV 	1.000006E+08	0           	;
 ~@V-~@AV-380    	I-V-~@AV-380    	O-V-~@AV-380    	1000        	TCV 	1.000006E+08	0           	;
 ~@V-~@AV-381    	I-V-~@AV-381    	O-V-~@AV-381    	1000        	TCV 	1.000006E+08	0           	;
 ~@V-~@AV-382    	I-V-~@AV-382    	O-V-~@AV-382    	1000        	TCV 	1.000006E+08	0           	;
 ~@V-~@AV-383    	I-V-~@AV-383    	O-V-~@AV-383    	1000        	TCV 	1.000006E+08	0           	;
 ~@V-~@AV-384    	I-V-~@AV-384    	O-V-~@AV-384    	1000        	TCV 	1.000006E+08	0           	;
 ~@V-~@AV-385    	I-V-~@AV-385    	O-V-~@AV-385    	1000        	TCV 	1.000006E+08	0           	;
 ~@V-~@AV-386    	I-V-~@AV-386    	O-V-~@AV-386    	1000        	TCV 	1.000006E+08	0           	;
 ~@V-~@AV-387    	I-V-~@AV-387    	O-V-~@AV-387    	1000        	TCV 	1.000006E+08	0           	;
 ~@V-~@AV-388    	I-V-~@AV-388    	O-V-~@AV-388    	1000        	TCV 	1.000006E+08	0           	;
 ~@V-~@AV-389    	I-V-~@AV-389    	O-V-~@AV-389    	1000        	TCV 	1.000006E+08	0           	;
 ~@V-~@AV-39     	I-V-~@AV-39     	O-V-~@AV-39     	1000        	TCV 	1.000006E+08	0           	;
 ~@V-~@AV-390    	I-V-~@AV-390    	O-V-~@AV-390    	1000        	TCV 	1.000006E+08	0           	;
 ~@V-~@AV-391    	I-V-~@AV-391    	O-V-~@AV-391    	1000        	TCV 	1.000006E+08	0           	;
 ~@V-~@AV-392    	I-V-~@AV-392    	O-V-~@AV-392    	1000        	TCV 	1.000006E+08	0           	;
 ~@V-~@AV-393    	I-V-~@AV-393    	O-V-~@AV-393    	1000        	TCV 	1.000006E+08	0           	;
 ~@V-~@AV-394    	I-V-~@AV-394    	O-V-~@AV-394    	1000        	TCV 	1.000006E+08	0           	;
 ~@V-~@AV-395    	I-V-~@AV-395    	O-V-~@AV-395    	1000        	TCV 	1.000006E+08	0           	;
 ~@V-~@AV-396    	I-V-~@AV-396    	O-V-~@AV-396    	1000        	TCV 	1.000006E+08	0           	;
 ~@V-~@AV-397    	I-V-~@AV-397    	O-V-~@AV-397    	1000        	TCV 	1.000006E+08	0           	;
 ~@V-~@AV-398    	I-V-~@AV-398    	O-V-~@AV-398    	1000        	TCV 	1.000006E+08	0           	;
 ~@V-~@AV-399    	I-V-~@AV-399    	O-V-~@AV-399    	1000        	TCV 	1.000006E+08	0           	;
 ~@V-~@AV-4      	I-V-~@AV-4      	O-V-~@AV-4      	1000        	TCV 	1.000006E+08	0           	;
 ~@V-~@AV-40     	I-V-~@AV-40     	O-V-~@AV-40     	1000        	TCV 	1.000006E+08	0           	;
 ~@V-~@AV-400    	I-V-~@AV-400    	O-V-~@AV-400    	1000        	TCV 	1.000006E+08	0           	;
 ~@V-~@AV-401    	I-V-~@AV-401    	O-V-~@AV-401    	1000        	TCV 	1.000006E+08	0           	;
 ~@V-~@AV-402    	I-V-~@AV-402    	O-V-~@AV-402    	1000        	TCV 	1.000006E+08	0           	;
 ~@V-~@AV-403    	I-V-~@AV-403    	O-V-~@AV-403    	1000        	TCV 	1.000006E+08	0           	;
 ~@V-~@AV-404    	I-V-~@AV-404    	O-V-~@AV-404    	1000        	TCV 	1.000006E+08	0           	;
 ~@V-~@AV-405    	I-V-~@AV-405    	O-V-~@AV-405    	1000        	TCV 	1.000006E+08	0           	;
 ~@V-~@AV-406    	I-V-~@AV-406    	O-V-~@AV-406    	1000        	TCV 	1.000006E+08	0           	;
 ~@V-~@AV-407    	I-V-~@AV-407    	O-V-~@AV-407    	1000        	TCV 	1.000006E+08	0           	;
 ~@V-~@AV-408    	I-V-~@AV-408    	O-V-~@AV-408    	1000        	TCV 	1.000006E+08	0           	;
 ~@V-~@AV-409    	I-V-~@AV-409    	O-V-~@AV-409    	1000        	TCV 	1.000006E+08	0           	;
 ~@V-~@AV-41     	I-V-~@AV-41     	O-V-~@AV-41     	1000        	TCV 	1.000006E+08	0           	;
 ~@V-~@AV-410    	I-V-~@AV-410    	O-V-~@AV-410    	1000        	TCV 	1.000006E+08	0           	;
 ~@V-~@AV-411    	I-V-~@AV-411    	O-V-~@AV-411    	1000        	TCV 	1.000006E+08	0           	;
 ~@V-~@AV-412    	I-V-~@AV-412    	O-V-~@AV-412    	1000        	TCV 	1.000006E+08	0           	;
 ~@V-~@AV-413    	I-V-~@AV-413    	O-V-~@AV-413    	1000        	TCV 	1.000006E+08	0           	;
 ~@V-~@AV-414    	I-V-~@AV-414    	O-V-~@AV-414    	1000        	TCV 	1.000006E+08	0           	;
 ~@V-~@AV-415    	I-V-~@AV-415    	O-V-~@AV-415    	1000        	TCV 	1.000006E+08	0           	;
 ~@V-~@AV-416    	I-V-~@AV-416    	O-V-~@AV-416    	1000        	TCV 	1.000006E+08	0           	;
 ~@V-~@AV-417    	I-V-~@AV-417    	O-V-~@AV-417    	1000        	TCV 	1.000006E+08	0           	;
 ~@V-~@AV-418    	I-V-~@AV-418    	O-V-~@AV-418    	1000        	TCV 	1.000006E+08	0           	;
 ~@V-~@AV-419    	I-V-~@AV-419    	O-V-~@AV-419    	1000        	TCV 	1.000006E+08	0           	;
 ~@V-~@AV-42     	I-V-~@AV-42     	O-V-~@AV-42     	1000        	TCV 	1.000006E+08	0           	;
 ~@V-~@AV-420    	I-V-~@AV-420    	O-V-~@AV-420    	1000        	TCV 	1.000006E+08	0           	;
 ~@V-~@AV-421    	I-V-~@AV-421    	O-V-~@AV-421    	1000        	TCV 	1.000006E+08	0           	;
 ~@V-~@AV-422    	I-V-~@AV-422    	O-V-~@AV-422    	1000        	TCV 	1.000006E+08	0           	;
 ~@V-~@AV-423    	I-V-~@AV-423    	O-V-~@AV-423    	1000        	TCV 	1.000006E+08	0           	;
 ~@V-~@AV-424    	I-V-~@AV-424    	O-V-~@AV-424    	1000        	TCV 	1.000006E+08	0           	;
 ~@V-~@AV-425    	I-V-~@AV-425    	O-V-~@AV-425    	1000        	TCV 	1.000006E+08	0           	;
 ~@V-~@AV-426    	I-V-~@AV-426    	O-V-~@AV-426    	1000        	TCV 	1.000006E+08	0           	;
 ~@V-~@AV-427    	I-V-~@AV-427    	O-V-~@AV-427    	1000        	TCV 	1.000006E+08	0           	;
 ~@V-~@AV-428    	I-V-~@AV-428    	O-V-~@AV-428    	1000        	TCV 	1.000006E+08	0           	;
 ~@V-~@AV-429    	I-V-~@AV-429    	O-V-~@AV-429    	1000        	TCV 	1.000006E+08	0           	;
 ~@V-~@AV-43     	I-V-~@AV-43     	O-V-~@AV-43     	1000        	TCV 	1.000006E+08	0           	;
 ~@V-~@AV-430    	I-V-~@AV-430    	O-V-~@AV-430    	1000        	TCV 	1.000006E+08	0           	;
 ~@V-~@AV-431    	I-V-~@AV-431    	O-V-~@AV-431    	1000        	TCV 	1.000006E+08	0           	;
 ~@V-~@AV-432    	I-V-~@AV-432    	O-V-~@AV-432    	1000        	TCV 	1.000006E+08	0           	;
 ~@V-~@AV-433    	I-V-~@AV-433    	O-V-~@AV-433    	1000        	TCV 	1.000006E+08	0           	;
 ~@V-~@AV-434    	I-V-~@AV-434    	O-V-~@AV-434    	1000        	TCV 	1.000006E+08	0           	;
 ~@V-~@AV-435    	I-V-~@AV-435    	O-V-~@AV-435    	1000        	TCV 	1.000006E+08	0           	;
 ~@V-~@AV-436    	I-V-~@AV-436    	O-V-~@AV-436    	1000        	TCV 	1.000006E+08	0           	;
 ~@V-~@AV-437    	I-V-~@AV-437    	O-V-~@AV-437    	1000        	TCV 	1.000006E+08	0           	;
 ~@V-~@AV-438    	I-V-~@AV-438    	O-V-~@AV-438    	1000        	TCV 	1.000006E+08	0           	;
 ~@V-~@AV-439    	I-V-~@AV-439    	O-V-~@AV-439    	1000        	TCV 	1.000006E+08	0           	;
 ~@V-~@AV-44     	I-V-~@AV-44     	O-V-~@AV-44     	1000        	TCV 	1.000006E+08	0           	;
 ~@V-~@AV-440    	I-V-~@AV-440    	O-V-~@AV-440    	1000        	TCV 	1.000006E+08	0           	;
 ~@V-~@AV-441    	I-V-~@AV-441    	O-V-~@AV-441    	1000        	TCV 	1.000006E+08	0           	;
 ~@V-~@AV-442    	I-V-~@AV-442    	O-V-~@AV-442    	1000        	TCV 	1.000006E+08	0           	;
 ~@V-~@AV-443    	I-V-~@AV-443    	O-V-~@AV-443    	1000        	TCV 	1.000006E+08	0           	;
 ~@V-~@AV-444    	I-V-~@AV-444    	O-V-~@AV-444    	1000        	TCV 	1.000006E+08	0           	;
 ~@V-~@AV-445    	I-V-~@AV-445    	O-V-~@AV-445    	1000        	TCV 	1.000006E+08	0           	;
 ~@V-~@AV-446    	I-V-~@AV-446    	O-V-~@AV-446    	1000        	TCV 	1.000006E+08	0           	;
 ~@V-~@AV-447    	I-V-~@AV-447    	O-V-~@AV-447    	1000        	TCV 	1.000006E+08	0           	;
 ~@V-~@AV-448    	I-V-~@AV-448    	O-V-~@AV-448    	1000        	TCV 	1.000006E+08	0           	;
 ~@V-~@AV-449    	I-V-~@AV-449    	O-V-~@AV-449    	1000        	TCV 	1.000006E+08	0           	;
 ~@V-~@AV-45     	I-V-~@AV-45     	O-V-~@AV-45     	1000        	TCV 	1.000006E+08	0           	;
 ~@V-~@AV-450    	I-V-~@AV-450    	O-V-~@AV-450    	1000        	TCV 	1.000006E+08	0           	;
 ~@V-~@AV-451    	I-V-~@AV-451    	O-V-~@AV-451    	1000        	TCV 	1.000006E+08	0           	;
 ~@V-~@AV-452    	I-V-~@AV-452    	O-V-~@AV-452    	1000        	TCV 	1.000006E+08	0           	;
 ~@V-~@AV-453    	I-V-~@AV-453    	O-V-~@AV-453    	1000        	TCV 	1.000006E+08	0           	;
 ~@V-~@AV-454    	I-V-~@AV-454    	O-V-~@AV-454    	1000        	TCV 	1.000006E+08	0           	;
 ~@V-~@AV-455    	I-V-~@AV-455    	O-V-~@AV-455    	1000        	TCV 	1.000006E+08	0           	;
 ~@V-~@AV-456    	I-V-~@AV-456    	O-V-~@AV-456    	1000        	TCV 	1.000006E+08	0           	;
 ~@V-~@AV-457    	I-V-~@AV-457    	O-V-~@AV-457    	1000        	TCV 	1.000006E+08	0           	;
 ~@V-~@AV-458    	I-V-~@AV-458    	O-V-~@AV-458    	1000        	TCV 	1.000006E+08	0           	;
 ~@V-~@AV-459    	I-V-~@AV-459    	O-V-~@AV-459    	1000        	TCV 	1.000006E+08	0           	;
 ~@V-~@AV-46     	I-V-~@AV-46     	O-V-~@AV-46     	1000        	TCV 	1.000006E+08	0           	;
 ~@V-~@AV-460    	I-V-~@AV-460    	O-V-~@AV-460    	1000        	TCV 	1.000006E+08	0           	;
 ~@V-~@AV-461    	I-V-~@AV-461    	O-V-~@AV-461    	1000        	TCV 	1.000006E+08	0           	;
 ~@V-~@AV-462    	I-V-~@AV-462    	O-V-~@AV-462    	1000        	TCV 	1.000006E+08	0           	;
 ~@V-~@AV-463    	I-V-~@AV-463    	O-V-~@AV-463    	1000        	TCV 	1.000006E+08	0           	;
 ~@V-~@AV-464    	I-V-~@AV-464    	O-V-~@AV-464    	1000        	TCV 	1.000006E+08	0           	;
 ~@V-~@AV-465    	I-V-~@AV-465    	O-V-~@AV-465    	1000        	TCV 	1.000006E+08	0           	;
 ~@V-~@AV-466    	I-V-~@AV-466    	O-V-~@AV-466    	1000        	TCV 	1.000006E+08	0           	;
 ~@V-~@AV-467    	I-V-~@AV-467    	O-V-~@AV-467    	1000        	TCV 	1.000006E+08	0           	;
 ~@V-~@AV-468    	I-V-~@AV-468    	O-V-~@AV-468    	1000        	TCV 	1.000006E+08	0           	;
 ~@V-~@AV-47     	I-V-~@AV-47     	O-V-~@AV-47     	1000        	TCV 	1.000006E+08	0           	;
 ~@V-~@AV-48     	I-V-~@AV-48     	O-V-~@AV-48     	1000        	TCV 	1.000006E+08	0           	;
 ~@V-~@AV-49     	I-V-~@AV-49     	O-V-~@AV-49     	1000        	TCV 	1.000006E+08	0           	;
 ~@V-~@AV-5      	I-V-~@AV-5      	O-V-~@AV-5      	1000        	TCV 	1.000006E+08	0           	;
 ~@V-~@AV-50     	I-V-~@AV-50     	O-V-~@AV-50     	1000        	TCV 	1.000006E+08	0           	;
 ~@V-~@AV-51     	I-V-~@AV-51     	O-V-~@AV-51     	1000        	TCV 	1.000006E+08	0           	;
 ~@V-~@AV-52     	I-V-~@AV-52     	O-V-~@AV-52     	1000        	TCV 	1.000006E+08	0           	;
 ~@V-~@AV-53     	I-V-~@AV-53     	O-V-~@AV-53     	1000        	TCV 	1.000006E+08	0           	;
 ~@V-~@AV-54     	I-V-~@AV-54     	O-V-~@AV-54     	1000        	TCV 	1.000006E+08	0           	;
 ~@V-~@AV-55     	I-V-~@AV-55     	O-V-~@AV-55     	1000        	TCV 	1.000006E+08	0           	;
 ~@V-~@AV-56     	I-V-~@AV-56     	O-V-~@AV-56     	1000        	TCV 	1.000006E+08	0           	;
 ~@V-~@AV-57     	I-V-~@AV-57     	O-V-~@AV-57     	1000        	TCV 	1.000006E+08	0           	;
 ~@V-~@AV-58     	I-V-~@AV-58     	O-V-~@AV-58     	1000        	TCV 	1.000006E+08	0           	;
 ~@V-~@AV-59     	I-V-~@AV-59     	O-V-~@AV-59     	1000        	TCV 	1.000006E+08	0           	;
 ~@V-~@AV-6      	I-V-~@AV-6      	O-V-~@AV-6      	1000        	TCV 	1.000006E+08	0           	;
 ~@V-~@AV-60     	I-V-~@AV-60     	O-V-~@AV-60     	1000        	TCV 	1.000006E+08	0           	;
 ~@V-~@AV-61     	I-V-~@AV-61     	O-V-~@AV-61     	1000        	TCV 	1.000006E+08	0           	;
 ~@V-~@AV-62     	I-V-~@AV-62     	O-V-~@AV-62     	1000        	TCV 	1.000006E+08	0           	;
 ~@V-~@AV-63     	I-V-~@AV-63     	O-V-~@AV-63     	1000        	TCV 	1.000006E+08	0           	;
 ~@V-~@AV-64     	I-V-~@AV-64     	O-V-~@AV-64     	1000        	TCV 	1.000006E+08	0           	;
 ~@V-~@AV-65     	I-V-~@AV-65     	O-V-~@AV-65     	1000        	TCV 	1.000006E+08	0           	;
 ~@V-~@AV-66     	I-V-~@AV-66     	O-V-~@AV-66     	1000        	TCV 	1.000006E+08	0           	;
 ~@V-~@AV-67     	I-V-~@AV-67     	O-V-~@AV-67     	1000        	TCV 	1.000006E+08	0           	;
 ~@V-~@AV-68     	I-V-~@AV-68     	O-V-~@AV-68     	1000        	TCV 	1.000006E+08	0           	;
 ~@V-~@AV-69     	I-V-~@AV-69     	O-V-~@AV-69     	1000        	TCV 	1.000006E+08	0           	;
 ~@V-~@AV-7      	I-V-~@AV-7      	O-V-~@AV-7      	1000        	TCV 	1.000006E+08	0           	;
 ~@V-~@AV-70     	I-V-~@AV-70     	O-V-~@AV-70     	1000        	TCV 	1.000006E+08	0           	;
 ~@V-~@AV-71     	I-V-~@AV-71     	O-V-~@AV-71     	1000        	TCV 	1.000006E+08	0           	;
 ~@V-~@AV-72     	I-V-~@AV-72     	O-V-~@AV-72     	1000        	TCV 	1.000006E+08	0           	;
 ~@V-~@AV-73     	I-V-~@AV-73     	O-V-~@AV-73     	1000        	TCV 	1.000006E+08	0           	;
 ~@V-~@AV-74     	I-V-~@AV-74     	O-V-~@AV-74     	1000        	TCV 	1.000006E+08	0           	;
 ~@V-~@AV-75     	I-V-~@AV-75     	O-V-~@AV-75     	1000        	TCV 	1.000006E+08	0           	;
 ~@V-~@AV-76     	I-V-~@AV-76     	O-V-~@AV-76     	1000        	TCV 	1.000006E+08	0           	;
 ~@V-~@AV-77     	I-V-~@AV-77     	O-V-~@AV-77     	1000        	TCV 	1.000006E+08	0           	;
 ~@V-~@AV-78     	I-V-~@AV-78     	O-V-~@AV-78     	1000        	TCV 	1.000006E+08	0           	;
 ~@V-~@AV-79     	I-V-~@AV-79     	O-V-~@AV-79     	1000        	TCV 	1.000006E+08	0           	;
 ~@V-~@AV-8      	I-V-~@AV-8      	O-V-~@AV-8      	1000        	TCV 	1.000006E+08	0           	;
 ~@V-~@AV-80     	I-V-~@AV-80     	O-V-~@AV-80     	1000        	TCV 	1.000006E+08	0           	;
 ~@V-~@AV-81     	I-V-~@AV-81     	O-V-~@AV-81     	1000        	TCV 	1.000006E+08	0           	;
 ~@V-~@AV-82     	I-V-~@AV-82     	O-V-~@AV-82     	1000        	TCV 	1.000006E+08	0           	;
 ~@V-~@AV-83     	I-V-~@AV-83     	O-V-~@AV-83     	1000        	TCV 	1.000006E+08	0           	;
 ~@V-~@AV-84     	I-V-~@AV-84     	O-V-~@AV-84     	1000        	TCV 	1.000006E+08	0           	;
 ~@V-~@AV-85     	I-V-~@AV-85     	O-V-~@AV-85     	1000        	TCV 	1.000006E+08	0           	;
 ~@V-~@AV-86     	I-V-~@AV-86     	O-V-~@AV-86     	1000        	TCV 	1.000006E+08	0           	;
 ~@V-~@AV-87     	I-V-~@AV-87     	O-V-~@AV-87     	1000        	TCV 	1.000006E+08	0           	;
 ~@V-~@AV-88     	I-V-~@AV-88     	O-V-~@AV-88     	1000        	TCV 	1.000006E+08	0           	;
 ~@V-~@AV-89     	I-V-~@AV-89     	O-V-~@AV-89     	1000        	TCV 	1.000006E+08	0           	;
 ~@V-~@AV-9      	I-V-~@AV-9      	O-V-~@AV-9      	1000        	TCV 	1.000006E+08	0           	;
 ~@V-~@AV-90     	I-V-~@AV-90     	O-V-~@AV-90     	1000        	TCV 	1.000006E+08	0           	;
 ~@V-~@AV-91     	I-V-~@AV-91     	O-V-~@AV-91     	1000        	TCV 	1.000006E+08	0           	;
 ~@V-~@AV-92     	I-V-~@AV-92     	O-V-~@AV-92     	1000        	TCV 	1.000006E+08	0           	;
 ~@V-~@AV-93     	I-V-~@AV-93     	O-V-~@AV-93     	1000        	TCV 	1.000006E+08	0           	;
 ~@V-~@AV-94     	I-V-~@AV-94     	O-V-~@AV-94     	1000        	TCV 	1.000006E+08	0           	;
 ~@V-~@AV-95     	I-V-~@AV-95     	O-V-~@AV-95     	1000        	TCV 	1.000006E+08	0           	;
 ~@V-~@AV-96     	I-V-~@AV-96     	O-V-~@AV-96     	1000        	TCV 	1.000006E+08	0           	;
 ~@V-~@AV-97     	I-V-~@AV-97     	O-V-~@AV-97     	1000        	TCV 	1.000006E+08	0           	;
 ~@V-~@AV-98     	I-V-~@AV-98     	O-V-~@AV-98     	1000        	TCV 	1.000006E+08	0           	;
 ~@V-~@AV-99     	I-V-~@AV-99     	O-V-~@AV-99     	1000        	TCV 	1.000006E+08	0           	;

[TAGS]

[DEMANDS]
;Junction        	Demand      	Pattern         	Category

[STATUS]
;ID              	Status/Setting
 ~@P-~@Pump-2    	0.93
 ~@P-~@Pump-2    	Closed
 ~@P-~@Pump-3    	0.9

[PATTERNS]
;ID              	Multipliers
;
 1               	1           	4.8         	4.69        	3.828       	2.99        	4.98        
 1               	2.67        	6.5         	3.338       	5.578       	4.36        
;
 2               	1           	3.598       	1.169       	0.958       	0.99        	1.23        
 2               	1.1         	2.799       	0.819       	1.389       	1.08        
;
 3               	1           	0.439       	1.75        	1.7         	1.779       	2.338       
 3               	1.97        	1.269       	3.009       	1.529       	2.049       
;
 4               	1           	1           	1           	1           	1           	1           
 4               	1           	1           	1           	1           	1           
;
 11              	1           
;
 ENRG1           	1           	1           	1           	1           	1           	1           
 ENRG1           	1           	1           	1           	1           	1           	1           
 ENRG1           	1           	1           	1           	1           	1           

[CURVES]
;ID              	X-Value     	Y-Value
;PUMP: PUMP: -------------------------------------------------------------------------------
 P1              	0           	472         
 P1              	500         	436         
 P1              	1000        	400         
 P1              	1500        	368         
 P1              	2000        	352         
 P1              	2400        	344         
 P1              	2500        	336         
 P1              	2750        	320         
 P1              	3000        	296         
 P1              	3250        	264         
 P1              	3500        	232         
 P1              	3750        	192         
;PUMP: PUMP: 
 P2              	0           	118         
 P2              	100         	116         
 P2              	200         	113         
 P2              	300         	110         
 P2              	400         	104         
 P2              	500         	98          
 P2              	600         	88          
 P2              	700         	74          
 P2              	775         	56          
;PUMP: PUMP: 
 P3              	1850        	306.923     
 P3              	2020        	293.076     
 P3              	2250        	283.846     
 P3              	2450        	274.846     
 P3              	2500        	270.923     
 P3              	2550        	268.615     
 P3              	2600        	268.153     
 P3              	2650        	266.769     
 P3              	3000        	259.153     
 P3              	3050        	257.538     
 P3              	3100        	256.614     
;PUMP: PUMP: 
 PE1             	0           	0           
 PE1             	500         	0           
 PE1             	1000        	0           
 PE1             	1500        	0           
 PE1             	2000        	0           
 PE1             	2400        	0           
 PE1             	2500        	0           
 PE1             	2750        	0           
 PE1             	3000        	0           
 PE1             	3250        	0           
 PE1             	3500        	0           
 PE1             	3750        	0           
;PUMP: PUMP: 
 PE2             	0           	0           
 PE2             	100         	0           
 PE2             	200         	0           
 PE2             	300         	0           
 PE2             	400         	0           
 PE2             	500         	0           
 PE2             	600         	0           
 PE2             	700         	0           
 PE2             	775         	0           
;PUMP: PUMP: 
 PE3             	1850        	0           
 PE3             	2020        	0           
 PE3             	2250        	0           
 PE3             	2450        	0           
 PE3             	2500        	0           
 PE3             	2550        	0           
 PE3             	2600        	0           
 PE3             	2650        	0           
 PE3             	3000        	0           
 PE3             	3050        	0           
 PE3             	3100        	0           
;PUMP: PUMP: Tank ID data (Volume vs. Depth)
 T1              	0           	111.5       
 T1              	70.749      	126.5       
 T1              	141.499992246396	141.5       
;PUMP: PUMP: 
 T2              	0           	115.5       
 T2              	73          	130.75      
 T2              	146.000003184982	146         

[CONTROLS]
LINK ~@P-~@Pump-3           CLOSED AT CLOCKTIME  1 


[RULES]


[ENERGY]
 Global Efficiency  	75
 Global Price       	0
 Global Pattern     	ENRG1
 Demand Charge      	0
 Pump 	~@P-~@Pump-1    	Efficiency	PE3
 Pump 	~@P-~@Pump-2    	Efficiency	PE1
 Pump 	~@P-~@Pump-3    	Efficiency	PE2

[EMITTERS]
;Junction        	Coefficient

[QUALITY]
;Node            	InitQual

[SOURCES]
;Node            	Type        	Quality     	Pattern

[REACTIONS]
;Type     	Pipe/Tank       	Coefficient


[REACTIONS]
 Order Bulk            	0
 Order Tank            	0
 Order Wall            	0
 Global Bulk           	0
 Global Wall           	0
 Limiting Potential    	0
 Roughness Correlation 	0

[MIXING]
;Tank            	Model

[TIMES]
 Duration           	10:00 
 Hydraulic Timestep 	0:15 
 Quality Timestep   	0:05 
 Pattern Timestep   	24:00 
 Pattern Start      	0:00 
 Report Timestep    	1:00 
 Report Start       	0:00 
 Start ClockTime    	12 am
 Statistic          	NONE

[REPORT]
 Status             	Full
 Summary            	No
 Page               	0

[OPTIONS]
 Units              	GPM
 Headloss           	H-W
 Specific Gravity   	1
 Viscosity          	1
 Trials             	60
 Accuracy           	0.001
 CHECKFREQ          	2
 MAXCHECK           	10
 DAMPLIMIT          	0
 Unbalanced         	Continue 10
 Pattern            	1
 Demand Multiplier  	1.0
 Emitter Exponent   	0.5
 Quality            	AGE mg/L
 Diffusivity        	0.05
 Tolerance          	0.01

[COORDINATES]
;Node            	X-Coord           	Y-Coord
I-AV-1          	3963525.949       	3697967.000       
I-AV-10         	3960459.430       	3692603.000       
I-AV-100        	3964408.836       	3700229.000       
I-AV-101        	3963794.866       	3699968.000       
I-AV-102        	3960562.089       	3700050.000       
I-AV-103        	3963800.896       	3699987.000       
I-AV-104        	3963014.700       	3699807.000       
I-AV-105        	3962933.805       	3700262.000       
I-AV-106        	3962946.982       	3700211.000       
I-AV-107        	3962513.285       	3700501.000       
I-AV-108        	3965042.763       	3701207.000       
I-AV-109        	3965068.073       	3701214.000       
I-AV-11         	3960477.556       	3692538.000       
I-AV-110        	3965047.005       	3700633.000       
I-AV-111        	3965046.592       	3700610.000       
I-AV-112        	3965481.112       	3700910.000       
I-AV-113        	3977806.332       	3679403.000       
I-AV-114        	3960554.714       	3700012.000       
I-AV-115        	3965473.099       	3700935.000       
I-AV-116        	3965515.663       	3700932.000       
I-AV-117        	3965978.167       	3701219.000       
I-AV-118        	3965909.637       	3700519.000       
I-AV-119        	3965943.099       	3701945.000       
I-AV-12         	3960461.663       	3692771.000       
I-AV-120        	3965902.429       	3701953.000       
I-AV-121        	3965866.601       	3701967.000       
I-AV-122        	3965724.825       	3701751.000       
I-AV-123        	3965698.364       	3701735.000       
I-AV-124        	3960341.588       	3698739.000       
I-AV-125        	3965475.597       	3701745.000       
I-AV-126        	3965454.748       	3701725.000       
I-AV-127        	3965300.703       	3702116.000       
I-AV-128        	3965252.099       	3701629.000       
I-AV-129        	3965268.034       	3701588.000       
I-AV-13         	3959641.364       	3691920.000       
I-AV-130        	3958275.134       	3694029.000       
I-AV-131        	3957347.644       	3693425.000       
I-AV-132        	3957360.517       	3693440.000       
I-AV-133        	3957341.870       	3693464.000       
I-AV-134        	3956839.288       	3692845.000       
I-AV-135        	3960476.536       	3698685.000       
I-AV-136        	3956793.273       	3692855.000       
I-AV-137        	3956946.383       	3692677.000       
I-AV-138        	3956981.298       	3692699.000       
I-AV-139        	3957984.889       	3693184.000       
I-AV-14         	3959647.412       	3691951.000       
I-AV-140        	3965285.792       	3686271.000       
I-AV-141        	3965224.711       	3686276.000       
I-AV-142        	3964213.923       	3686991.000       
I-AV-143        	3964603.098       	3687299.000       
I-AV-144        	3964620.739       	3687295.000       
I-AV-145        	3964996.870       	3687561.000       
I-AV-146        	3960511.221       	3698690.000       
I-AV-147        	3965396.991       	3687843.000       
I-AV-148        	3964652.137       	3705302.000       
I-AV-149        	3964653.844       	3705278.000       
I-AV-15         	3960218.238       	3699263.000       
I-AV-150        	3965836.310       	3704580.000       
I-AV-151        	3965613.623       	3704582.000       
I-AV-152        	3965605.959       	3704506.000       
I-AV-153        	3965298.977       	3704634.000       
I-AV-154        	3965244.256       	3704599.000       
I-AV-155        	3964728.423       	3704877.000       
I-AV-156        	3964900.119       	3704715.000       
I-AV-157        	3960205.973       	3698421.000       
I-AV-158        	3964557.926       	3704952.000       
I-AV-159        	3964523.856       	3704931.000       
I-AV-16         	3959429.118       	3692126.000       
I-AV-160        	3964574.778       	3704914.000       
I-AV-161        	3964203.263       	3705005.000       
I-AV-162        	3964152.485       	3705012.000       
I-AV-163        	3964184.611       	3705030.000       
I-AV-164        	3964199.132       	3705139.000       
I-AV-165        	3963996.798       	3705033.000       
I-AV-166        	3963984.774       	3705041.000       
I-AV-167        	3964885.187       	3704018.000       
I-AV-168        	3960382.747       	3698189.000       
I-AV-169        	3964904.421       	3704032.000       
I-AV-17         	3959388.679       	3692117.000       
I-AV-170        	3964893.772       	3704083.000       
I-AV-171        	3965188.356       	3704027.000       
I-AV-172        	3965206.524       	3703998.000       
I-AV-173        	3966062.092       	3704028.000       
I-AV-174        	3965776.495       	3704034.000       
I-AV-175        	3965782.754       	3704018.000       
I-AV-176        	3965749.969       	3704019.000       
I-AV-177        	3965736.901       	3704016.000       
I-AV-178        	3965501.204       	3703134.000       
I-AV-179        	3960460.072       	3698095.000       
I-AV-18         	3959390.446       	3692078.000       
I-AV-180        	3965493.205       	3703131.000       
I-AV-181        	3965475.559       	3703154.000       
I-AV-182        	3965459.757       	3703138.000       
I-AV-183        	3965898.159       	3703027.000       
I-AV-184        	3965815.277       	3702983.000       
I-AV-185        	3965161.695       	3703127.000       
I-AV-186        	3965143.803       	3703250.000       
I-AV-187        	3965140.375       	3703548.000       
I-AV-188        	3964813.152       	3703292.000       
I-AV-189        	3964829.599       	3703566.000       
I-AV-19         	3959889.847       	3691685.000       
I-AV-190        	3960913.100       	3701315.000       
I-AV-191        	3964827.106       	3703061.000       
I-AV-192        	3964811.449       	3703047.000       
I-AV-193        	3964797.805       	3702939.000       
I-AV-194        	3964852.116       	3702926.000       
I-AV-195        	3965298.969       	3702604.000       
I-AV-196        	3965774.953       	3702283.000       
I-AV-197        	3965786.830       	3702294.000       
I-AV-198        	3965789.838       	3702247.000       
I-AV-199        	3962187.981       	3701968.000       
I-AV-2          	3967974.416       	3699307.000       
I-AV-20         	3959886.674       	3691653.000       
I-AV-200        	3965795.123       	3702291.000       
I-AV-201        	3966349.237       	3701872.000       
I-AV-202        	3966367.992       	3701838.000       
I-AV-204        	3967030.895       	3702049.000       
I-AV-205        	3967035.929       	3702023.000       
I-AV-206        	3966887.299       	3701402.000       
I-AV-207        	3966919.740       	3701381.000       
I-AV-208        	3968716.195       	3701980.000       
I-AV-209        	3968742.415       	3702017.000       
I-AV-21         	3959868.618       	3691236.000       
I-AV-210        	3961929.790       	3701259.000       
I-AV-211        	3968749.786       	3701982.000       
I-AV-212        	3968558.459       	3702014.000       
I-AV-213        	3968456.072       	3702058.000       
I-AV-214        	3969150.329       	3702004.000       
I-AV-215        	3968879.019       	3702175.000       
I-AV-216        	3968873.985       	3702201.000       
I-AV-217        	3970130.111       	3701890.000       
I-AV-218        	3970166.316       	3701835.000       
I-AV-219        	3969976.730       	3701176.000       
I-AV-22         	3959931.961       	3691211.000       
I-AV-220        	3969984.379       	3701129.000       
I-AV-221        	3960387.674       	3705902.000       
I-AV-222        	3961959.403       	3701209.000       
I-AV-223        	3969995.459       	3701132.000       
I-AV-224        	3969929.204       	3701168.000       
I-AV-225        	3967870.337       	3700723.000       
I-AV-226        	3967527.432       	3700980.000       
I-AV-227        	3967325.335       	3701106.000       
I-AV-228        	3967295.144       	3700859.000       
I-AV-229        	3967308.057       	3700672.000       
I-AV-23         	3960000.133       	3690858.000       
I-AV-230        	3967149.180       	3701269.000       
I-AV-231        	3967147.184       	3701236.000       
I-AV-232        	3967125.696       	3701233.000       
I-AV-233        	3961012.809       	3701052.000       
I-AV-234        	3967116.036       	3701240.000       
I-AV-235        	3967126.961       	3701249.000       
I-AV-236        	3967108.980       	3701261.000       
I-AV-237        	3967094.952       	3701239.000       
I-AV-238        	3966587.129       	3700917.000       
I-AV-239        	3966587.245       	3700887.000       
I-AV-24         	3960042.421       	3690855.000       
I-AV-240        	3966559.516       	3700905.000       
I-AV-241        	3966563.030       	3700880.000       
I-AV-242        	3966370.441       	3701051.000       
I-AV-243        	3966342.632       	3701009.000       
I-AV-244        	3960873.929       	3699924.000       
I-AV-245        	3966363.756       	3699993.000       
I-AV-246        	3966858.020       	3699871.000       
I-AV-247        	3966596.764       	3699775.000       
I-AV-248        	3967408.275       	3700146.000       
I-AV-249        	3967431.418       	3700137.000       
I-AV-25         	3959869.859       	3691075.000       
I-AV-250        	3967424.536       	3700140.000       
I-AV-251        	3967428.251       	3700124.000       
I-AV-252        	3968050.302       	3699950.000       
I-AV-253        	3968126.031       	3699629.000       
I-AV-254        	3960921.410       	3699905.000       
I-AV-255        	3967867.485       	3699561.000       
I-AV-256        	3967813.666       	3699548.000       
I-AV-257        	3967571.888       	3699480.000       
I-AV-258        	3967581.565       	3699442.000       
I-AV-259        	3967528.137       	3699440.000       
I-AV-26         	3960460.007       	3699319.000       
I-AV-260        	3967686.475       	3699222.000       
I-AV-261        	3967767.898       	3699258.000       
I-AV-262        	3967804.630       	3699266.000       
I-AV-263        	3967659.091       	3699212.000       
I-AV-264        	3961513.874       	3699626.000       
I-AV-265        	3966474.601       	3699272.000       
I-AV-266        	3966502.963       	3699262.000       
I-AV-267        	3966512.198       	3699291.000       
I-AV-268        	3966338.248       	3699669.000       
I-AV-269        	3966310.997       	3699680.000       
I-AV-27         	3963559.235       	3692570.000       
I-AV-270        	3970820.825       	3701476.000       
I-AV-271        	3970908.198       	3701506.000       
I-AV-272        	3970962.338       	3701148.000       
I-AV-273        	3970654.361       	3700702.000       
I-AV-274        	3970371.805       	3700898.000       
I-AV-275        	3961849.421       	3700424.000       
I-AV-276        	3966486.775       	3705944.000       
I-AV-277        	3966731.685       	3705580.000       
I-AV-278        	3966756.012       	3705541.000       
I-AV-279        	3966724.375       	3705549.000       
I-AV-28         	3964005.460       	3692602.000       
I-AV-280        	3968764.962       	3705232.000       
I-AV-281        	3968830.509       	3704957.000       
I-AV-282        	3968812.790       	3704912.000       
I-AV-283        	3968439.677       	3705165.000       
I-AV-284        	3968525.452       	3704714.000       
I-AV-285        	3968535.975       	3704705.000       
I-AV-286        	3961853.443       	3700455.000       
I-AV-287        	3967064.472       	3705084.000       
I-AV-288        	3967046.370       	3705082.000       
I-AV-289        	3967029.286       	3705086.000       
I-AV-29         	3962660.391       	3694574.000       
I-AV-290        	3967301.682       	3704646.000       
I-AV-291        	3966376.781       	3705335.000       
I-AV-292        	3966368.700       	3705308.000       
I-AV-293        	3966563.190       	3705089.000       
I-AV-294        	3966551.269       	3705023.000       
I-AV-295        	3966533.294       	3705052.000       
I-AV-296        	3966642.350       	3704841.000       
I-AV-297        	3961864.059       	3700404.000       
I-AV-298        	3966644.402       	3704870.000       
I-AV-299        	3966673.558       	3704861.000       
I-AV-3          	3967670.610       	3700385.000       
I-AV-30         	3962462.377       	3694022.000       
I-AV-300        	3966498.114       	3704747.000       
I-AV-301        	3966500.862       	3704719.000       
I-AV-302        	3966589.245       	3704570.000       
I-AV-303        	3966574.877       	3704537.000       
I-AV-304        	3966494.115       	3704210.000       
I-AV-305        	3966490.710       	3704184.000       
I-AV-306        	3966371.735       	3704109.000       
I-AV-307        	3966564.134       	3704183.000       
I-AV-308        	3961997.348       	3699594.000       
I-AV-309        	3966587.143       	3704171.000       
I-AV-31         	3962483.565       	3694054.000       
I-AV-310        	3966932.531       	3704419.000       
I-AV-311        	3967637.563       	3704131.000       
I-AV-312        	3967648.506       	3704154.000       
I-AV-313        	3967675.018       	3704116.000       
I-AV-314        	3967686.099       	3704100.000       
I-AV-315        	3967724.368       	3704066.000       
I-AV-316        	3968192.364       	3704501.000       
I-AV-317        	3968001.598       	3704472.000       
I-AV-318        	3968005.610       	3704443.000       
I-AV-319        	3962015.290       	3699602.000       
I-AV-32         	3962490.064       	3693992.000       
I-AV-320        	3968032.480       	3704422.000       
I-AV-321        	3968546.665       	3704495.000       
I-AV-322        	3968572.501       	3704501.000       
I-AV-323        	3968892.846       	3704575.000       
I-AV-324        	3968767.451       	3703545.000       
I-AV-325        	3968233.289       	3703416.000       
I-AV-326        	3968229.188       	3703447.000       
I-AV-327        	3968261.307       	3703425.000       
I-AV-328        	3968044.899       	3703570.000       
I-AV-329        	3968086.981       	3703163.000       
I-AV-33         	3963356.940       	3695507.000       
I-AV-330        	3960381.175       	3705830.000       
I-AV-331        	3962045.819       	3699579.000       
I-AV-332        	3968064.632       	3703156.000       
I-AV-333        	3968300.201       	3703026.000       
I-AV-334        	3968286.081       	3703028.000       
I-AV-335        	3968290.496       	3703011.000       
I-AV-336        	3968304.848       	3703015.000       
I-AV-337        	3967752.316       	3703128.000       
I-AV-338        	3966715.118       	3703545.000       
I-AV-339        	3966724.396       	3703539.000       
I-AV-34         	3963354.910       	3695539.000       
I-AV-340        	3966373.837       	3702795.000       
I-AV-341        	3966230.097       	3702227.000       
I-AV-342        	3961766.207       	3699510.000       
I-AV-343        	3966552.551       	3702164.000       
I-AV-344        	3967425.572       	3702695.000       
I-AV-345        	3969026.831       	3702499.000       
I-AV-346        	3969055.965       	3702514.000       
I-AV-347        	3969095.324       	3702451.000       
I-AV-348        	3969024.302       	3702427.000       
I-AV-349        	3971021.470       	3706063.000       
I-AV-35         	3964154.507       	3695618.000       
I-AV-350        	3971013.572       	3706138.000       
I-AV-351        	3971458.852       	3705488.000       
I-AV-352        	3971518.596       	3705455.000       
I-AV-353        	3961317.095       	3698724.000       
I-AV-354        	3971790.451       	3706369.000       
I-AV-355        	3972608.799       	3704796.000       
I-AV-356        	3972635.956       	3704957.000       
I-AV-357        	3972616.825       	3704762.000       
I-AV-358        	3972551.266       	3704677.000       
I-AV-359        	3972226.421       	3704878.000       
I-AV-36         	3962987.063       	3695107.000       
I-AV-360        	3972147.094       	3704917.000       
I-AV-361        	3972021.217       	3704933.000       
I-AV-362        	3972024.401       	3704962.000       
I-AV-363        	3971578.550       	3704725.000       
I-AV-364        	3961344.913       	3698728.000       
I-AV-365        	3971621.210       	3704719.000       
I-AV-366        	3970347.636       	3703711.000       
I-AV-367        	3971358.131       	3704453.000       
I-AV-368        	3971855.799       	3704522.000       
I-AV-369        	3971898.848       	3704512.000       
I-AV-37         	3960173.870       	3699333.000       
I-AV-370        	3972389.649       	3704156.000       
I-AV-371        	3972417.000       	3704182.000       
I-AV-372        	3972392.780       	3704133.000       
I-AV-373        	3972143.246       	3703958.000       
I-AV-374        	3972215.317       	3703928.000       
I-AV-375        	3961589.072       	3698635.000       
I-AV-376        	3972662.304       	3704475.000       
I-AV-377        	3972381.353       	3707079.000       
I-AV-378        	3972071.356       	3706696.000       
I-AV-379        	3972016.640       	3706616.000       
I-AV-38         	3962900.341       	3695390.000       
I-AV-380        	3972014.390       	3706649.000       
I-AV-381        	3971333.827       	3706828.000       
I-AV-382        	3970997.756       	3706288.000       
I-AV-383        	3971074.835       	3706308.000       
I-AV-384        	3971081.541       	3706346.000       
I-AV-385        	3966460.202       	3707777.000       
I-AV-386        	3961871.013       	3698555.000       
I-AV-387        	3966352.392       	3708079.000       
I-AV-388        	3967302.320       	3708079.000       
I-AV-389        	3968663.575       	3708210.000       
I-AV-39         	3963113.979       	3695470.000       
I-AV-390        	3968744.103       	3708327.000       
I-AV-391        	3969005.618       	3708281.000       
I-AV-392        	3969017.392       	3708297.000       
I-AV-393        	3969025.811       	3708255.000       
I-AV-394        	3968893.458       	3708909.000       
I-AV-395        	3968873.901       	3708885.000       
I-AV-396        	3968903.019       	3708864.000       
I-AV-397        	3961907.261       	3698529.000       
I-AV-398        	3966269.374       	3706603.000       
I-AV-399        	3966091.746       	3707579.000       
I-AV-4          	3960221.302       	3704147.000       
I-AV-40         	3962969.386       	3696328.000       
I-AV-400        	3966069.746       	3707605.000       
I-AV-401        	3966068.476       	3707552.000       
I-AV-402        	3965952.803       	3708021.000       
I-AV-403        	3965944.948       	3708217.000       
I-AV-404        	3966271.116       	3708306.000       
I-AV-405        	3972039.405       	3706603.000       
I-AV-406        	3972039.089       	3706625.000       
I-AV-407        	3972037.788       	3706678.000       
I-AV-408        	3962105.649       	3698343.000       
I-AV-409        	3966047.464       	3707639.000       
I-AV-41         	3962929.302       	3696322.000       
I-AV-410        	3966042.068       	3707579.000       
I-AV-411        	3977750.309       	3679386.000       
I-AV-412        	3960278.744       	3695426.000       
I-AV-413        	3959095.544       	3695121.000       
I-AV-414        	3960527.627       	3705901.000       
I-AV-415        	3959120.985       	3695164.000       
I-AV-416        	3959085.178       	3695158.000       
I-AV-417        	3959149.911       	3695172.000       
I-AV-418        	3959161.783       	3694954.000       
I-AV-419        	3958712.257       	3694592.000       
I-AV-42         	3962953.835       	3696278.000       
I-AV-420        	3958850.881       	3695154.000       
I-AV-421        	3958869.871       	3695174.000       
I-AV-422        	3958811.621       	3695257.000       
I-AV-423        	3958450.920       	3695106.000       
I-AV-424        	3958432.658       	3695135.000       
I-AV-425        	3960346.424       	3704684.000       
I-AV-426        	3961294.785       	3697945.000       
I-AV-427        	3961720.035       	3696985.000       
I-AV-428        	3961761.618       	3697018.000       
I-AV-429        	3960901.274       	3696420.000       
I-AV-43         	3964155.404       	3696312.000       
I-AV-430        	3961061.925       	3696553.000       
I-AV-431        	3958535.503       	3696435.000       
I-AV-432        	3958553.632       	3696260.000       
I-AV-433        	3958503.044       	3695689.000       
I-AV-434        	3959366.560       	3696378.000       
I-AV-435        	3959950.977       	3695972.000       
I-AV-436        	3960377.805       	3704654.000       
I-AV-437        	3960465.328       	3695952.000       
I-AV-438        	3960496.573       	3695948.000       
I-AV-439        	3960441.807       	3696015.000       
I-AV-44         	3964173.498       	3697153.000       
I-AV-440        	3960383.211       	3695993.000       
I-AV-441        	3960946.326       	3696269.000       
I-AV-442        	3960957.309       	3696312.000       
I-AV-443        	3960722.445       	3695148.000       
I-AV-444        	3960285.226       	3694191.000       
I-AV-445        	3960603.075       	3694151.000       
I-AV-446        	3960595.087       	3694004.000       
I-AV-447        	3960341.890       	3704628.000       
I-AV-448        	3961599.840       	3694161.000       
I-AV-449        	3961657.127       	3694174.000       
I-AV-45         	3964157.576       	3696898.000       
I-AV-450        	3962385.667       	3694562.000       
I-AV-451        	3961835.947       	3693914.000       
I-AV-452        	3962658.522       	3694917.000       
I-AV-453        	3962643.434       	3694898.000       
I-AV-454        	3961567.321       	3693470.000       
I-AV-455        	3961533.794       	3693459.000       
I-AV-456        	3960399.924       	3693475.000       
I-AV-457        	3960363.750       	3693399.000       
I-AV-458        	3960009.914       	3704278.000       
I-AV-459        	3960054.103       	3693404.000       
I-AV-46         	3963730.082       	3696849.000       
I-AV-460        	3959754.866       	3693370.000       
I-AV-461        	3959654.296       	3693346.000       
I-AV-462        	3959439.639       	3693504.000       
I-AV-463        	3959422.007       	3693409.000       
I-AV-464        	3959388.813       	3693394.000       
I-AV-465        	3959413.614       	3693359.000       
I-AV-466        	3959190.078       	3692348.000       
I-AV-467        	3959652.821       	3692759.000       
I-AV-468        	3959740.226       	3692557.000       
I-AV-47         	3962868.804       	3696514.000       
I-AV-48         	3960285.521       	3699623.000       
I-AV-49         	3962778.181       	3697122.000       
I-AV-5          	3959640.588       	3692576.000       
I-AV-50         	3962756.165       	3697076.000       
I-AV-51         	3962615.969       	3697743.000       
I-AV-52         	3962615.030       	3697758.000       
I-AV-53         	3962621.522       	3697729.000       
I-AV-54         	3962629.500       	3697735.000       
I-AV-55         	3962622.028       	3697743.000       
I-AV-56         	3962639.832       	3697734.000       
I-AV-57         	3963024.493       	3698020.000       
I-AV-58         	3962991.957       	3698024.000       
I-AV-59         	3960274.292       	3699669.000       
I-AV-6          	3960171.489       	3692855.000       
I-AV-60         	3962986.286       	3698008.000       
I-AV-61         	3962960.280       	3697988.000       
I-AV-62         	3962947.688       	3698005.000       
I-AV-63         	3962970.110       	3698007.000       
I-AV-64         	3963478.658       	3697369.000       
I-AV-65         	3963340.181       	3697515.000       
I-AV-66         	3963345.789       	3697547.000       
I-AV-67         	3963353.890       	3697628.000       
I-AV-68         	3963377.032       	3697711.000       
I-AV-69         	3963405.393       	3697698.000       
I-AV-7          	3960451.929       	3692659.000       
I-AV-70         	3960450.880       	3699607.000       
I-AV-71         	3963399.213       	3697674.000       
I-AV-72         	3963700.491       	3697891.000       
I-AV-73         	3963318.015       	3697889.000       
I-AV-74         	3964176.174       	3697440.000       
I-AV-75         	3963982.725       	3697446.000       
I-AV-76         	3963974.700       	3697691.000       
I-AV-77         	3964047.055       	3697617.000       
I-AV-78         	3964079.797       	3697676.000       
I-AV-79         	3964350.328       	3697970.000       
I-AV-8          	3960470.837       	3692689.000       
I-AV-80         	3964595.141       	3697861.000       
I-AV-81         	3960365.180       	3700143.000       
I-AV-82         	3963145.135       	3698143.000       
I-AV-83         	3963099.564       	3698100.000       
I-AV-84         	3963088.045       	3698117.000       
I-AV-85         	3964122.434       	3699586.000       
I-AV-86         	3964085.715       	3699605.000       
I-AV-87         	3964112.088       	3699571.000       
I-AV-88         	3964428.366       	3699141.000       
I-AV-89         	3964459.368       	3699164.000       
I-AV-9          	3960476.729       	3692636.000       
I-AV-90         	3964432.476       	3699167.000       
I-AV-91         	3964942.986       	3699573.000       
I-AV-92         	3960207.444       	3700195.000       
I-AV-93         	3964983.130       	3699572.000       
I-AV-94         	3966098.828       	3700407.000       
I-AV-95         	3966071.166       	3700418.000       
I-AV-96         	3965979.757       	3700374.000       
I-AV-97         	3964620.171       	3700363.000       
I-AV-98         	3964619.979       	3699960.000       
I-AV-99         	3964449.799       	3700256.000       
I-Pump-1        	3971500.305       	3700285.000       
I-Pump-2        	3971500.706       	3700284.000       
I-Pump-3        	3963528.603       	3697964.000       
J-1             	3958361.895       	3704749.000       
J-10            	3994961.562       	3688361.000       
J-100           	3964974.945       	3703322.000       
J-101           	3965000.787       	3703123.000       
J-102           	3960833.076       	3694663.000       
J-103           	3959768.805       	3694934.000       
J-104           	3971857.253       	3705730.000       
J-105           	3971888.418       	3705709.000       
J-106           	3956933.137       	3700119.000       
J-107           	3967765.237       	3699522.000       
J-108           	3960003.274       	3693827.000       
J-109           	3960385.093       	3693886.000       
J-11            	3967902.163       	3704124.000       
J-110           	3962315.095       	3694632.000       
J-111           	3962621.822       	3694623.000       
J-112           	3980202.654       	3716238.000       
J-113           	3964025.612       	3695756.000       
J-114           	3958704.059       	3695874.000       
J-115           	3958686.148       	3695693.000       
J-116           	3965476.293       	3704662.000       
J-117           	3962529.571       	3697424.000       
J-118           	3965488.338       	3702162.000       
J-119           	3965532.599       	3701574.000       
J-12            	3968043.576       	3703906.000       
J-120           	3965351.284       	3703166.000       
J-121           	3965347.905       	3703286.000       
J-122           	3961831.606       	3695251.000       
J-123           	3971779.009       	3704805.000       
J-124           	3972056.899       	3704598.000       
J-125           	3958325.986       	3696899.000       
J-126           	3959632.888       	3696810.000       
J-127           	3964993.293       	3703012.000       
J-128           	3964979.199       	3702989.000       
J-129           	3965315.392       	3703614.000       
J-13            	3961691.837       	3697636.000       
J-130           	3965355.679       	3703566.000       
J-131           	3965516.719       	3702649.000       
J-132           	3965594.176       	3702600.000       
J-133           	3958756.758       	3696495.000       
J-134           	3958721.794       	3696072.000       
J-135           	3964366.587       	3705071.000       
J-136           	3964407.661       	3705198.000       
J-137           	3957948.684       	3698346.000       
J-138           	3958512.886       	3698482.000       
J-139           	3962293.945       	3701298.000       
J-14            	3961403.302       	3697417.000       
J-140           	3962266.878       	3700978.000       
J-141           	3964746.795       	3705088.000       
J-142           	3965587.610       	3704652.000       
J-143           	3961165.242       	3696351.000       
J-144           	3962727.364       	3693326.000       
J-145           	3962910.830       	3693357.000       
J-146           	3960676.623       	3698760.000       
J-147           	3965349.341       	3703313.000       
J-148           	3962454.251       	3701349.000       
J-149           	3962592.145       	3700854.000       
J-15            	3962454.776       	3696822.000       
J-150           	3959937.128       	3693393.000       
J-151           	3968492.610       	3703094.000       
J-152           	3969265.020       	3702565.000       
J-153           	3956885.777       	3690740.000       
J-154           	3958720.184       	3690800.000       
J-155           	3958707.403       	3697201.000       
J-156           	3971186.688       	3703199.000       
J-157           	3971204.984       	3703499.000       
J-158           	3971886.860       	3703185.000       
J-159           	3964155.144       	3698836.000       
J-16            	3962175.397       	3696644.000       
J-160           	3964827.543       	3705341.000       
J-161           	3964834.546       	3705343.000       
J-162           	3964789.725       	3705220.000       
J-163           	3965051.088       	3702982.000       
J-164           	3962202.185       	3704396.000       
J-165           	3967189.128       	3702065.000       
J-166           	3966266.632       	3707642.000       
J-167           	3966655.052       	3707825.000       
J-168           	3966418.743       	3708601.000       
J-169           	3966479.234       	3708375.000       
J-17            	3964918.901       	3690587.000       
J-170           	3966986.360       	3710878.000       
J-171           	3966944.270       	3710375.000       
J-172           	3964083.356       	3697216.000       
J-173           	3964380.138       	3697216.000       
J-174           	3967143.233       	3704497.000       
J-175           	3967065.392       	3704443.000       
J-176           	3967016.474       	3710371.000       
J-177           	3967048.952       	3710848.000       
J-178           	3961880.331       	3693944.000       
J-179           	3962675.397       	3694087.000       
J-18            	3966105.696       	3688605.000       
J-180           	3965452.552       	3701879.000       
J-181           	3966146.998       	3701292.000       
J-182           	3966195.005       	3701354.000       
J-183           	3968113.907       	3704230.000       
J-184           	3968261.291       	3704308.000       
J-185           	3971426.148       	3703949.000       
J-186           	3971539.759       	3702852.000       
J-187           	3971089.745       	3702258.000       
J-188           	3967726.730       	3701036.000       
J-189           	3967735.712       	3701041.000       
J-19            	3967326.912       	3701315.000       
J-190           	3963325.600       	3696189.000       
J-191           	3963587.856       	3696537.000       
J-192           	3962825.740       	3697804.000       
J-193           	3963186.480       	3698079.000       
J-194           	3963332.078       	3696148.000       
J-195           	3966111.771       	3708274.000       
J-196           	3966543.675       	3701090.000       
J-197           	3966548.514       	3701097.000       
J-198           	3966273.793       	3707618.000       
J-199           	3958596.313       	3698142.000       
J-2             	3956329.586       	3702715.000       
J-20            	3967439.263       	3701484.000       
J-200           	3964243.679       	3705367.000       
J-201           	3967042.870       	3701839.000       
J-202           	3972596.853       	3704220.000       
J-203           	3971303.485       	3701423.000       
J-204           	3971713.668       	3700916.000       
J-205           	3963607.080       	3697740.000       
J-206           	3963503.011       	3697660.000       
J-207           	3966811.470       	3701488.000       
J-208           	3965483.349       	3703567.000       
J-209           	3963971.373       	3700046.000       
J-21            	3960684.869       	3699172.000       
J-210           	3964616.516       	3700304.000       
J-211           	3970823.287       	3700737.000       
J-212           	3971143.880       	3701182.000       
J-213           	3969732.087       	3706360.000       
J-214           	3969608.864       	3706260.000       
J-215           	3966932.540       	3705623.000       
J-216           	3966547.394       	3705386.000       
J-217           	3960460.396       	3698774.000       
J-218           	3960580.030       	3698626.000       
J-219           	3965273.845       	3703565.000       
J-22            	3960714.476       	3698748.000       
J-220           	3958836.951       	3691396.000       
J-221           	3964070.211       	3696327.000       
J-222           	3962406.978       	3699684.000       
J-223           	3965677.655       	3700034.000       
J-224           	3968401.585       	3704513.000       
J-225           	3968390.747       	3704566.000       
J-226           	3961057.654       	3701590.000       
J-227           	3961108.691       	3699934.000       
J-228           	3971085.998       	3703234.000       
J-229           	3966990.947       	3700806.000       
J-23            	3967851.476       	3700480.000       
J-230           	3960327.246       	3698687.000       
J-231           	3968094.228       	3704216.000       
J-232           	3959613.383       	3697133.000       
J-233           	3964737.988       	3704986.000       
J-234           	3960061.156       	3691735.000       
J-235           	3960197.458       	3691841.000       
J-236           	3966707.716       	3707686.000       
J-237           	3963058.214       	3696893.000       
J-238           	3963017.910       	3696886.000       
J-239           	3966888.856       	3703590.000       
J-24            	3968049.214       	3700771.000       
J-240           	3966903.458       	3703597.000       
J-241           	3963373.660       	3695910.000       
J-242           	3963179.914       	3696105.000       
J-243           	3966248.633       	3704068.000       
J-244           	3966693.009       	3704255.000       
J-245           	3963313.974       	3695566.000       
J-246           	3964365.834       	3696379.000       
J-247           	3967184.273       	3704426.000       
J-248           	3963922.403       	3696886.000       
J-249           	3964376.619       	3696966.000       
J-25            	3965224.735       	3700689.000       
J-250           	3970893.670       	3700093.000       
J-251           	3968262.519       	3702312.000       
J-252           	3967092.162       	3701454.000       
J-253           	3966761.817       	3700959.000       
J-254           	3963249.474       	3694709.000       
J-255           	3964382.712       	3697502.000       
J-256           	3967878.596       	3703100.000       
J-257           	3968089.851       	3702961.000       
J-258           	3968299.372       	3703291.000       
J-259           	3968434.920       	3703498.000       
J-26            	3965432.662       	3700387.000       
J-260           	3960344.072       	3699346.000       
J-261           	3959929.669       	3699508.000       
J-262           	3964849.008       	3705339.000       
J-263           	3964807.041       	3705213.000       
J-264           	3960675.590       	3699377.000       
J-265           	3970602.754       	3700902.000       
J-266           	3971156.836       	3700604.000       
J-267           	3967849.760       	3704199.000       
J-268           	3964366.429       	3696093.000       
J-269           	3966096.889       	3709178.000       
J-27            	3966442.957       	3702285.000       
J-270           	3963427.270       	3695556.000       
J-271           	3963283.107       	3695531.000       
J-272           	3963139.085       	3696368.000       
J-273           	3964143.304       	3697519.000       
J-274           	3967761.554       	3702459.000       
J-275           	3956950.680       	3692893.000       
J-276           	3956881.803       	3692839.000       
J-277           	3967507.107       	3704719.000       
J-278           	3968208.031       	3704483.000       
J-279           	3965542.036       	3703182.000       
J-28            	3966470.182       	3702405.000       
J-280           	3964977.028       	3703355.000       
J-281           	3967536.398       	3702603.000       
J-282           	3970021.813       	3704224.000       
J-283           	3970534.717       	3703792.000       
J-284           	3967633.866       	3702745.000       
J-285           	3964336.665       	3705212.000       
J-286           	3959855.172       	3695863.000       
J-287           	3960179.985       	3696059.000       
J-288           	3971156.206       	3700596.000       
J-289           	3960476.241       	3698867.000       
J-29            	3960557.392       	3698240.000       
J-290           	3972217.765       	3705030.000       
J-291           	3972308.510       	3704950.000       
J-292           	3966503.028       	3706094.000       
J-293           	3966372.101       	3706208.000       
J-294           	3959812.855       	3692642.000       
J-295           	3960028.468       	3692567.000       
J-296           	3963272.427       	3695582.000       
J-297           	3968206.473       	3703144.000       
J-298           	3967145.545       	3705281.000       
J-299           	3967227.798       	3705155.000       
J-3             	3966474.794       	3706666.000       
J-30            	3960672.701       	3698155.000       
J-300           	3957527.786       	3693506.000       
J-301           	3957005.796       	3692936.000       
J-302           	3972464.053       	3706560.000       
J-303           	3959554.713       	3697468.000       
J-304           	3963648.539       	3697408.000       
J-305           	3964253.676       	3697713.000       
J-306           	3966768.155       	3704246.000       
J-307           	3963589.044       	3695635.000       
J-308           	3964329.642       	3695615.000       
J-309           	3970913.087       	3705105.000       
J-31            	3969024.125       	3705001.000       
J-310           	3967929.580       	3703173.000       
J-311           	3959597.153       	3692163.000       
J-312           	3959348.571       	3692370.000       
J-313           	3964221.531       	3705301.000       
J-314           	3968148.958       	3703380.000       
J-315           	3971433.817       	3703112.000       
J-316           	3971563.255       	3703259.000       
J-317           	3960851.915       	3696150.000       
J-318           	3968232.053       	3704487.000       
J-319           	3968201.221       	3704536.000       
J-32            	3968611.596       	3705224.000       
J-320           	3960395.947       	3705860.000       
J-321           	3954879.934       	3704941.000       
J-322           	3960685.605       	3697918.000       
J-323           	3960933.556       	3697518.000       
J-324           	3966509.331       	3699725.000       
J-325           	3966683.030       	3699345.000       
J-326           	3958486.064       	3698591.000       
J-327           	3965545.398       	3704873.000       
J-328           	3960192.538       	3710836.000       
J-329           	3962087.663       	3713161.000       
J-33            	3962937.758       	3698418.000       
J-330           	3962190.454       	3699633.000       
J-331           	3961531.830       	3699412.000       
J-332           	3969210.780       	3708336.000       
J-333           	3971537.273       	3706907.000       
J-334           	3959133.833       	3696110.000       
J-335           	3962388.822       	3702061.000       
J-336           	3962428.286       	3701817.000       
J-337           	3962143.007       	3693721.000       
J-338           	3962437.180       	3693498.000       
J-339           	3959342.916       	3690608.000       
J-34            	3962454.005       	3699480.000       
J-340           	3959843.161       	3690671.000       
J-341           	3961934.204       	3693684.000       
J-342           	3965171.965       	3687646.000       
J-343           	3971022.619       	3704501.000       
J-344           	3971203.373       	3704120.000       
J-345           	3962116.429       	3701566.000       
J-346           	3962150.168       	3701296.000       
J-347           	3962364.836       	3701611.000       
J-348           	3962223.877       	3702098.000       
J-349           	3961506.303       	3698775.000       
J-35            	3964803.014       	3687370.000       
J-350           	3965518.179       	3699899.000       
J-351           	3968212.181       	3699375.000       
J-352           	3965592.092       	3700433.000       
J-353           	3960618.443       	3696069.000       
J-354           	3959857.553       	3695586.000       
J-355           	3963054.222       	3700647.000       
J-356           	3960202.360       	3690900.000       
J-357           	3960083.864       	3691278.000       
J-358           	3967869.002       	3704172.000       
J-359           	3959183.206       	3695331.000       
J-36            	3964586.157       	3686754.000       
J-360           	3959391.712       	3695422.000       
J-361           	3960703.761       	3699666.000       
J-362           	3967410.619       	3705252.000       
J-363           	3967224.297       	3701181.000       
J-364           	3965092.215       	3700901.000       
J-365           	3962083.689       	3698611.000       
J-366           	3962301.789       	3698422.000       
J-367           	3964287.257       	3699651.000       
J-368           	3965245.202       	3701261.000       
J-369           	3961814.815       	3694230.000       
J-37            	3960851.618       	3695687.000       
J-370           	3959033.581       	3690702.000       
J-371           	3958675.608       	3695587.000       
J-372           	3963516.650       	3697681.000       
J-373           	3967975.172       	3699325.000       
J-374           	3956891.524       	3691501.000       
J-375           	3961693.676       	3699658.000       
J-376           	3961745.623       	3700376.000       
J-377           	3965686.041       	3700983.000       
J-378           	3966779.913       	3699107.000       
J-379           	3964199.873       	3698210.000       
J-38            	3960329.416       	3695393.000       
J-380           	3962575.022       	3697603.000       
J-381           	3962815.305       	3697796.000       
J-382           	3965110.599       	3701344.000       
J-383           	3961448.761       	3694255.000       
J-384           	3959612.613       	3696438.000       
J-385           	3962030.779       	3700485.000       
J-386           	3971005.706       	3701537.000       
J-387           	3962265.197       	3700931.000       
J-388           	3960223.247       	3693465.000       
J-389           	3960073.973       	3692821.000       
J-39            	3962749.457       	3695430.000       
J-390           	3961992.769       	3699501.000       
J-391           	3955784.590       	3690244.000       
J-392           	3955853.772       	3689730.000       
J-393           	3967129.630       	3702810.000       
J-394           	3970330.746       	3701897.000       
J-395           	3970307.670       	3701435.000       
J-396           	3961256.670       	3707323.000       
J-397           	3966643.759       	3705244.000       
J-398           	3960745.798       	3700098.000       
J-399           	3963328.389       	3693437.000       
J-4             	3966635.057       	3706099.000       
J-40            	3962586.035       	3695283.000       
J-400           	3962199.716       	3701002.000       
J-401           	3965092.215       	3700901.000       
J-402           	3963228.412       	3699875.000       
J-403           	3962529.623       	3698424.000       
J-404           	3962632.957       	3698217.000       
J-405           	3962820.032       	3697800.000       
J-406           	3967624.762       	3700220.000       
J-407           	3967631.748       	3700188.000       
J-408           	3956838.960       	3688770.000       
J-409           	3965603.280       	3700930.000       
J-41            	3960561.034       	3693544.000       
J-410           	3960349.657       	3691355.000       
J-411           	3965938.615       	3702053.000       
J-412           	3965977.903       	3702373.000       
J-413           	3965646.123       	3701809.000       
J-414           	3967372.609       	3702920.000       
J-415           	3959494.413       	3691327.000       
J-416           	3967541.178       	3701162.000       
J-417           	3967499.876       	3701168.000       
J-418           	3960991.473       	3698733.000       
J-419           	3961439.246       	3698068.000       
J-42            	3961749.072       	3693516.000       
J-420           	3958650.378       	3697922.000       
J-421           	3961466.454       	3698028.000       
J-422           	3965581.902       	3686991.000       
J-423           	3962604.664       	3698248.000       
J-424           	3963205.336       	3698095.000       
J-425           	3961218.644       	3694085.000       
J-426           	3963558.319       	3694694.000       
J-427           	3965842.687       	3686565.000       
J-428           	3972778.343       	3704743.000       
J-429           	3962622.137       	3698211.000       
J-43            	3962696.599       	3696976.000       
J-430           	3960488.357       	3699722.000       
J-431           	3967736.657       	3699684.000       
J-432           	3968079.906       	3699629.000       
J-433           	3967333.128       	3704614.000       
J-434           	3965963.162       	3704081.000       
J-435           	3958228.623       	3693292.000       
J-436           	3958294.121       	3693378.000       
J-437           	3966723.141       	3705948.000       
J-438           	3959554.591       	3692110.000       
J-439           	3968564.779       	3703410.000       
J-44            	3962487.709       	3707725.000       
J-440           	3960411.303       	3700283.000       
J-441           	3968938.299       	3703611.000       
J-442           	3968921.456       	3703541.000       
J-443           	3963441.010       	3693121.000       
J-444           	3964504.548       	3693415.000       
J-445           	3968696.091       	3704892.000       
J-446           	3959606.940       	3693451.000       
J-447           	3971049.669       	3705239.000       
J-448           	3971448.856       	3705741.000       
J-449           	3966365.851       	3707116.000       
J-45            	3965900.552       	3707665.000       
J-450           	3969098.710       	3704616.000       
J-451           	3968777.064       	3704541.000       
J-452           	3968722.493       	3704778.000       
J-453           	3963901.656       	3697041.000       
J-454           	3967558.196       	3707287.000       
J-455           	3968497.512       	3708323.000       
J-456           	3960705.264       	3697187.000       
J-457           	3960868.452       	3697281.000       
J-458           	3963520.309       	3695587.000       
J-459           	3963443.018       	3695473.000       
J-46            	3972854.857       	3705197.000       
J-460           	3963988.934       	3697854.000       
J-461           	3965433.415       	3686351.000       
J-462           	3956922.597       	3689244.000       
J-463           	3967298.076       	3701292.000       
J-464           	3958728.955       	3697554.000       
J-465           	3965148.084       	3699615.000       
J-466           	3964824.269       	3700035.000       
J-467           	3965543.647       	3704085.000       
J-468           	3965936.234       	3704079.000       
J-469           	3966768.873       	3699826.000       
J-47            	3972755.565       	3704727.000       
J-470           	3967036.503       	3699957.000       
J-471           	3971615.587       	3704595.000       
J-472           	3963909.919       	3692341.000       
J-473           	3964371.664       	3696678.000       
J-474           	3966179.003       	3700420.000       
J-475           	3960364.728       	3698001.000       
J-476           	3960823.545       	3696916.000       
J-477           	3963232.183       	3693925.000       
J-478           	3964145.252       	3694080.000       
J-479           	3962055.868       	3702123.000       
J-48            	3960851.565       	3695604.000       
J-480           	3957151.517       	3692750.000       
J-481           	3957497.007       	3692717.000       
J-482           	3968060.735       	3703372.000       
J-483           	3968552.852       	3702165.000       
J-484           	3966008.498       	3703704.000       
J-485           	3963246.410       	3693836.000       
J-486           	3969104.032       	3704643.000       
J-487           	3959325.461       	3695246.000       
J-488           	3959293.000       	3695207.000       
J-489           	3968751.189       	3704561.000       
J-49            	3960863.891       	3695208.000       
J-490           	3964968.272       	3686041.000       
J-491           	3966675.904       	3687280.000       
J-492           	3968701.413       	3704795.000       
J-493           	3958373.836       	3694232.000       
J-494           	3966891.360       	3699603.000       
J-495           	3966272.602       	3700491.000       
J-496           	3967312.731       	3701314.000       
J-497           	3967322.483       	3701308.000       
J-498           	3966540.548       	3699313.000       
J-499           	3966488.251       	3699325.000       
J-5             	3931183.720       	3715721.000       
J-50            	3960577.999       	3691025.000       
J-500           	3972737.514       	3704729.000       
J-501           	3967498.423       	3700905.000       
J-502           	3961073.324       	3696487.000       
J-503           	3966055.693       	3700569.000       
J-504           	3968027.592       	3711513.000       
J-505           	3962364.709       	3700453.000       
J-506           	3965280.911       	3698481.000       
J-507           	3962209.783       	3699635.000       
J-508           	3966492.470       	3699113.000       
J-509           	3965739.389       	3702503.000       
J-51            	3960515.425       	3685430.000       
J-510           	3959549.058       	3697501.000       
J-511           	3965957.594       	3704090.000       
J-512           	3971695.617       	3705506.000       
J-513           	3971868.213       	3705341.000       
J-514           	3967982.385       	3702312.000       
J-515           	3960155.718       	3699850.000       
J-516           	3955553.502       	3689109.000       
J-517           	3959687.977       	3690930.000       
J-518           	3961090.237       	3697792.000       
J-519           	3961478.465       	3698783.000       
J-52            	3966771.866       	3702221.000       
J-520           	3966253.406       	3707642.000       
J-521           	3972248.685       	3706771.000       
J-522           	3972558.318       	3707352.000       
J-523           	3972611.630       	3706549.000       
J-524           	3960533.476       	3704720.000       
J-525           	3960432.523       	3704210.000       
J-526           	3960469.448       	3703554.000       
J-527           	3971651.812       	3705943.000       
J-528           	3993840.843       	3687478.000       
J-529           	3994522.088       	3681725.000       
J-53            	3967184.531       	3702078.000       
J-530           	3968017.806       	3711136.000       
J-531           	3966682.960       	3706011.000       
J-532           	3968339.711       	3704801.000       
J-533           	3968258.525       	3705151.000       
J-534           	3960491.473       	3693725.000       
J-535           	3993466.711       	3727485.000       
J-536           	3958475.734       	3694074.000       
J-537           	3957753.362       	3693489.000       
J-538           	3962830.257       	3694978.000       
J-539           	3962213.138       	3694949.000       
J-54            	3966889.027       	3701602.000       
J-540           	3972080.325       	3706611.000       
J-541           	3971939.734       	3706747.000       
J-542           	3960199.594       	3704321.000       
J-543           	3959525.195       	3704731.000       
J-544           	3972215.101       	3706725.000       
J-545           	3968161.582       	3705589.000       
J-546           	3971969.743       	3706418.000       
J-547           	3959928.969       	3695078.000       
J-548           	3967240.674       	3705138.000       
J-549           	3967343.703       	3704977.000       
J-55            	3960794.278       	3694239.000       
J-550           	3964168.849       	3705397.000       
J-551           	3960501.698       	3698444.000       
J-552           	3964461.814       	3699429.000       
J-553           	3964897.500       	3687217.000       
J-554           	3963490.072       	3697933.000       
J-555           	3955494.768       	3689523.000       
J-556           	3968003.601       	3710917.000       
J-557           	3967450.503       	3710345.000       
J-558           	3958771.028       	3694581.000       
J-559           	3957717.645       	3693725.000       
J-56            	3960533.791       	3694260.000       
J-560           	3967076.356       	3712493.000       
J-561           	3969020.711       	3704964.000       
J-562           	3968950.695       	3705251.000       
J-563           	3968916.537       	3702059.000       
J-564           	3969518.662       	3701653.000       
J-565           	3959137.212       	3696224.000       
J-566           	3956819.438       	3691122.000       
J-567           	3957257.126       	3691067.000       
J-568           	3964405.542       	3692777.000       
J-569           	3963958.855       	3693090.000       
J-57            	3972450.537       	3704905.000       
J-570           	3965681.717       	3703199.000       
J-571           	3966005.812       	3703079.000       
J-572           	3966242.663       	3688377.000       
J-573           	3971830.185       	3703233.000       
J-574           	3965585.141       	3704664.000       
J-575           	3964909.254       	3704916.000       
J-576           	4002335.642       	3683678.000       
J-577           	3959660.901       	3695663.000       
J-578           	3968173.340       	3712030.000       
J-579           	3969296.570       	3706804.000       
J-58            	3972809.263       	3704836.000       
J-580           	3969756.661       	3701493.000       
J-581           	3964632.939       	3699216.000       
J-582           	3959919.445       	3696197.000       
J-583           	3965573.551       	3687928.000       
J-584           	3965749.964       	3687620.000       
J-585           	3960440.917       	3697822.000       
J-586           	3968153.300       	3700928.000       
J-587           	3963038.290       	3700727.000       
J-588           	3957118.111       	3692663.000       
J-589           	3965664.331       	3703202.000       
J-59            	3966574.566       	3701927.000       
J-590           	3965013.428       	3703155.000       
J-591           	3958656.944       	3695594.000       
J-592           	3959065.971       	3695220.000       
J-593           	3965804.695       	3704666.000       
J-594           	3957898.138       	3693080.000       
J-595           	3958162.617       	3693052.000       
J-596           	3968940.103       	3708403.000       
J-597           	3962970.463       	3697156.000       
J-598           	3966775.403       	3686967.000       
J-599           	3968883.709       	3702013.000       
J-6             	3927503.623       	3707516.000       
J-60            	3966347.415       	3701584.000       
J-600           	3968540.846       	3701502.000       
J-601           	3958640.977       	3695255.000       
J-602           	3966009.536       	3704446.000       
J-603           	3962875.638       	3695441.000       
J-604           	3963100.444       	3695454.000       
J-605           	3967651.585       	3701809.000       
J-606           	3967984.906       	3701557.000       
J-607           	3965082.253       	3704758.000       
J-608           	3965240.300       	3686633.000       
J-609           	3968154.106       	3699646.000       
J-61            	3965986.185       	3702372.000       
J-610           	3963676.104       	3698462.000       
J-611           	3967244.974       	3699509.000       
J-612           	3971154.105       	3700587.000       
J-613           	3965908.291       	3687196.000       
J-614           	3966331.534       	3687058.000       
J-615           	3963546.344       	3697591.000       
J-616           	3967627.776       	3700203.000       
J-617           	3966235.625       	3704085.000       
J-618           	3968485.467       	3703084.000       
J-619           	3957354.619       	3690805.000       
J-619a          	3967974.436       	3699309.000       
J-62            	3965981.633       	3702334.000       
J-620           	3959039.726       	3695253.000       
J-621           	3966473.532       	3687849.000       
J-622           	3965060.420       	3704087.000       
J-623           	3969086.471       	3708953.000       
J-624           	3963390.625       	3695837.000       
J-625           	3968263.462       	3703234.000       
J-626           	3969068.578       	3709036.000       
J-627           	3964367.392       	3696022.000       
J-628           	3963794.733       	3697590.000       
J-629           	3966845.419       	3704913.000       
J-63            	3960442.415       	3698526.000       
J-630           	3966731.493       	3705100.000       
J-631           	3966089.168       	3703071.000       
J-632           	3967822.045       	3712452.000       
J-633           	3964984.784       	3703322.000       
J-634           	3945383.053       	3705554.000       
J-635           	3967431.576       	3701958.000       
J-636           	3965946.424       	3702043.000       
J-637           	3966110.269       	3702010.000       
J-638           	3970960.744       	3705152.000       
J-639           	3966538.499       	3705400.000       
J-64            	3960380.594       	3698472.000       
J-640           	3959006.566       	3695578.000       
J-641           	3963558.319       	3694694.000       
J-642           	3967614.578       	3700197.000       
J-643           	3963200.188       	3695170.000       
J-644           	3963155.735       	3694713.000       
J-645           	3962871.944       	3694638.000       
J-646           	3963116.158       	3695011.000       
J-647           	3960555.694       	3693500.000       
J-648           	3960662.931       	3692723.000       
J-649           	3960579.767       	3692686.000       
J-65            	3964664.874       	3705383.000       
J-650           	3960669.182       	3692667.000       
J-651           	3958813.625       	3694323.000       
J-652           	3938746.223       	3705884.000       
J-653           	3961276.647       	3699848.000       
J-654           	3960880.366       	3699573.000       
J-655           	3965662.283       	3703192.000       
J-656           	3964854.821       	3705413.000       
J-657           	3959630.909       	3693579.000       
J-658           	3938396.216       	3705821.000       
J-659           	3954108.132       	3696900.000       
J-66            	3964252.993       	3705363.000       
J-660           	3960218.940       	3692536.000       
J-661           	3957669.795       	3693352.000       
J-662           	3958242.787       	3692530.000       
J-663           	3960650.816       	3692273.000       
J-664           	3937089.944       	3705906.000       
J-665           	3963728.692       	3692628.000       
J-666           	3956700.697       	3692692.000       
J-667           	3964241.945       	3705330.000       
J-668           	3968925.308       	3708923.000       
J-669           	3964268.208       	3698920.000       
J-67            	3966567.616       	3702882.000       
J-670           	3965629.385       	3702915.000       
J-671           	3965443.973       	3702919.000       
J-672           	3959818.089       	3691996.000       
J-673           	3964383.027       	3697591.000       
J-674           	3964139.417       	3697924.000       
J-675           	3970621.680       	3704820.000       
J-676           	3969003.955       	3704961.000       
J-677           	3967002.450       	3705353.000       
J-678           	3960546.572       	3704909.000       
J-679           	3962927.673       	3697498.000       
J-68            	3967725.049       	3705245.000       
J-680           	3970337.504       	3701943.000       
J-681           	3966290.583       	3704473.000       
J-682           	3960303.768       	3698572.000       
J-683           	3977975.507       	3679427.000       
J-684           	3965067.581       	3704150.000       
J-685           	3978039.107       	3679368.000       
J-686           	3944916.016       	3714827.000       
J-687           	3964012.465       	3692756.000       
J-688           	3968059.859       	3702429.000       
J-689           	3968308.003       	3702813.000       
J-69            	3968102.579       	3704681.000       
J-690           	3972092.581       	3705534.000       
J-691           	3968621.015       	3702726.000       
J-692           	3937104.483       	3702287.000       
J-693           	3972415.923       	3703982.000       
J-694           	3960218.940       	3692536.000       
J-695           	3932961.837       	3706137.000       
J-696           	3968583.530       	3705335.000       
J-697           	3958016.528       	3698004.000       
J-698           	3962055.903       	3704442.000       
J-699           	3962162.791       	3705327.000       
J-7             	3966900.223       	3706953.000       
J-70            	3965962.356       	3701670.000       
J-700           	3961841.620       	3694549.000       
J-701           	3972319.523       	3704028.000       
J-702           	3972375.864       	3704102.000       
J-703           	3962883.867       	3694501.000       
J-704           	3968082.865       	3700632.000       
J-705           	3968133.026       	3700424.000       
J-706           	3970544.381       	3700938.000       
J-707           	3968323.831       	3700719.000       
J-708           	3970146.017       	3701211.000       
J-709           	3970150.271       	3701217.000       
J-71            	3960786.942       	3694079.000       
J-710           	3966363.102       	3707324.000       
J-711           	3961251.751       	3704823.000       
J-712           	3962048.379       	3700489.000       
J-713           	3962806.648       	3697815.000       
J-714           	3960294.389       	3698204.000       
J-715           	3955619.354       	3688014.000       
J-716           	3959547.940       	3693079.000       
J-717           	3966047.609       	3703391.000       
J-718           	3961937.723       	3696951.000       
J-719           	3953182.962       	3690739.000       
J-72            	3960673.997       	3693796.000       
J-720           	3962236.361       	3697138.000       
J-721           	3963175.585       	3698094.000       
J-722           	3963164.442       	3698062.000       
J-723           	3963152.138       	3698078.000       
J-724           	3967535.330       	3707558.000       
J-725           	3963655.580       	3696249.000       
J-726           	3963327.404       	3698201.000       
J-727           	3982579.378       	3702031.000       
J-728           	3968726.688       	3704798.000       
J-729           	3972558.761       	3707152.000       
J-73            	3967841.637       	3699294.000       
J-730           	3972742.503       	3706996.000       
J-731           	3971499.875       	3700284.000       
J-732           	3971498.734       	3700283.000       
J-733           	3967343.212       	3708096.000       
J-734           	3970180.231       	3704374.000       
J-735           	3971501.161       	3700284.000       
J-736           	3970488.775       	3704683.000       
J-737           	3966035.002       	3688243.000       
J-738           	3968821.134       	3708282.000       
J-739           	3963337.020       	3698191.000       
J-74            	3967871.856       	3699301.000       
J-740           	3955723.473       	3689537.000       
J-741           	3955622.330       	3688597.000       
J-742           	3955886.204       	3688718.000       
J-743           	3972224.684       	3706683.000       
J-744           	3963217.456       	3694083.000       
J-745           	3972238.088       	3706696.000       
J-746           	3972174.311       	3706700.000       
J-747           	3988500.594       	3696310.000       
J-748           	3969175.216       	3694261.000       
J-749           	3972199.682       	3706713.000       
J-75            	3956734.436       	3690952.000       
J-750           	3974021.397       	3686427.000       
J-751           	3987340.167       	3686204.000       
J-752           	3942091.011       	3710777.000       
J-753           	3936889.305       	3709307.000       
J-754           	3963522.018       	3697966.000       
J-755           	3963525.746       	3697970.000       
J-756           	3963526.712       	3697963.000       
J-757           	3963530.188       	3697966.000       
J-758           	3963527.733       	3697968.000       
J-759           	3963524.224       	3697965.000       
J-76            	3959463.941       	3692591.000       
J-760           	3960868.242       	3693520.000       
J-761           	3967975.120       	3699305.000       
J-762           	3960551.877       	3705702.000       
J-77            	3965399.554       	3704090.000       
J-78            	3965398.154       	3704080.000       
J-79            	3962206.019       	3701665.000       
J-8             	3966397.576       	3707123.000       
J-80            	3962549.758       	3701755.000       
J-81            	3963567.231       	3697721.000       
J-82            	3963580.607       	3697784.000       
J-83            	3962679.459       	3700558.000       
J-84            	3962912.108       	3699803.000       
J-85            	3967046.063       	3712063.000       
J-86            	3967012.889       	3711583.000       
J-87            	3966990.159       	3702606.000       
J-88            	3967368.547       	3702353.000       
J-89            	3959410.428       	3698306.000       
J-9             	3972840.638       	3704536.000       
J-90            	3959485.976       	3697867.000       
J-91            	3967900.293       	3699199.000       
J-92            	3960358.428       	3700304.000       
J-93            	3960016.633       	3700436.000       
J-94            	3969052.068       	3702248.000       
J-95            	3969247.407       	3702540.000       
J-96            	3962475.295       	3697495.000       
J-97            	3962588.434       	3697587.000       
J-98            	3965122.697       	3704455.000       
J-99            	3965075.792       	3704096.000       
O-AV-1          	3963525.949       	3697967.000       
O-AV-10         	3960459.430       	3692603.000       
O-AV-100        	3964408.836       	3700229.000       
O-AV-101        	3963794.866       	3699968.000       
O-AV-102        	3960562.089       	3700050.000       
O-AV-103        	3963800.896       	3699987.000       
O-AV-104        	3963014.700       	3699807.000       
O-AV-105        	3962933.805       	3700262.000       
O-AV-106        	3962946.982       	3700211.000       
O-AV-107        	3962513.285       	3700501.000       
O-AV-108        	3965042.763       	3701207.000       
O-AV-109        	3965068.073       	3701214.000       
O-AV-11         	3960477.556       	3692538.000       
O-AV-110        	3965047.005       	3700633.000       
O-AV-111        	3965046.592       	3700610.000       
O-AV-112        	3965481.112       	3700910.000       
O-AV-113        	3977806.332       	3679403.000       
O-AV-114        	3960554.714       	3700012.000       
O-AV-115        	3965473.099       	3700935.000       
O-AV-116        	3965515.663       	3700932.000       
O-AV-117        	3965978.167       	3701219.000       
O-AV-118        	3965909.637       	3700519.000       
O-AV-119        	3965943.099       	3701945.000       
O-AV-12         	3960461.663       	3692771.000       
O-AV-120        	3965902.429       	3701953.000       
O-AV-121        	3965866.601       	3701967.000       
O-AV-122        	3965724.825       	3701751.000       
O-AV-123        	3965698.364       	3701735.000       
O-AV-124        	3960341.588       	3698739.000       
O-AV-125        	3965475.597       	3701745.000       
O-AV-126        	3965454.748       	3701725.000       
O-AV-127        	3965300.703       	3702116.000       
O-AV-128        	3965252.099       	3701629.000       
O-AV-129        	3965268.034       	3701588.000       
O-AV-13         	3959641.364       	3691920.000       
O-AV-130        	3958275.134       	3694029.000       
O-AV-131        	3957347.644       	3693425.000       
O-AV-132        	3957360.517       	3693440.000       
O-AV-133        	3957341.870       	3693464.000       
O-AV-134        	3956839.288       	3692845.000       
O-AV-135        	3960476.536       	3698685.000       
O-AV-136        	3956793.273       	3692855.000       
O-AV-137        	3956946.383       	3692677.000       
O-AV-138        	3956981.298       	3692699.000       
O-AV-139        	3957984.889       	3693184.000       
O-AV-14         	3959647.412       	3691951.000       
O-AV-140        	3965285.792       	3686271.000       
O-AV-141        	3965224.711       	3686276.000       
O-AV-142        	3964213.923       	3686991.000       
O-AV-143        	3964603.098       	3687299.000       
O-AV-144        	3964620.739       	3687295.000       
O-AV-145        	3964996.870       	3687561.000       
O-AV-146        	3960511.221       	3698690.000       
O-AV-147        	3965396.991       	3687843.000       
O-AV-148        	3964652.137       	3705302.000       
O-AV-149        	3964653.844       	3705278.000       
O-AV-15         	3960218.238       	3699263.000       
O-AV-150        	3965836.310       	3704580.000       
O-AV-151        	3965613.623       	3704582.000       
O-AV-152        	3965605.959       	3704506.000       
O-AV-153        	3965298.977       	3704634.000       
O-AV-154        	3965244.256       	3704599.000       
O-AV-155        	3964728.423       	3704877.000       
O-AV-156        	3964900.119       	3704715.000       
O-AV-157        	3960205.973       	3698421.000       
O-AV-158        	3964557.926       	3704952.000       
O-AV-159        	3964523.856       	3704931.000       
O-AV-16         	3959429.118       	3692126.000       
O-AV-160        	3964574.778       	3704914.000       
O-AV-161        	3964203.263       	3705005.000       
O-AV-162        	3964152.485       	3705012.000       
O-AV-163        	3964184.611       	3705030.000       
O-AV-164        	3964199.132       	3705139.000       
O-AV-165        	3963996.798       	3705033.000       
O-AV-166        	3963984.774       	3705041.000       
O-AV-167        	3964885.187       	3704018.000       
O-AV-168        	3960382.747       	3698189.000       
O-AV-169        	3964904.421       	3704032.000       
O-AV-17         	3959388.679       	3692117.000       
O-AV-170        	3964893.772       	3704083.000       
O-AV-171        	3965188.356       	3704027.000       
O-AV-172        	3965206.524       	3703998.000       
O-AV-173        	3966062.092       	3704028.000       
O-AV-174        	3965776.495       	3704034.000       
O-AV-175        	3965782.754       	3704018.000       
O-AV-176        	3965749.969       	3704019.000       
O-AV-177        	3965736.901       	3704016.000       
O-AV-178        	3965501.204       	3703134.000       
O-AV-179        	3960460.072       	3698095.000       
O-AV-18         	3959390.446       	3692078.000       
O-AV-180        	3965493.205       	3703131.000       
O-AV-181        	3965475.559       	3703154.000       
O-AV-182        	3965459.757       	3703138.000       
O-AV-183        	3965898.159       	3703027.000       
O-AV-184        	3965815.277       	3702983.000       
O-AV-185        	3965161.695       	3703127.000       
O-AV-186        	3965143.803       	3703250.000       
O-AV-187        	3965140.375       	3703548.000       
O-AV-188        	3964813.152       	3703292.000       
O-AV-189        	3964829.599       	3703566.000       
O-AV-19         	3959889.847       	3691685.000       
O-AV-190        	3960913.100       	3701315.000       
O-AV-191        	3964827.106       	3703061.000       
O-AV-192        	3964811.449       	3703047.000       
O-AV-193        	3964797.805       	3702939.000       
O-AV-194        	3964852.116       	3702926.000       
O-AV-195        	3965298.969       	3702604.000       
O-AV-196        	3965774.953       	3702283.000       
O-AV-197        	3965786.830       	3702294.000       
O-AV-198        	3965789.838       	3702247.000       
O-AV-199        	3962187.981       	3701968.000       
O-AV-2          	3967974.416       	3699307.000       
O-AV-20         	3959886.674       	3691653.000       
O-AV-200        	3965795.123       	3702291.000       
O-AV-201        	3966349.237       	3701872.000       
O-AV-202        	3966367.992       	3701838.000       
O-AV-204        	3967030.895       	3702049.000       
O-AV-205        	3967035.929       	3702023.000       
O-AV-206        	3966887.299       	3701402.000       
O-AV-207        	3966919.740       	3701381.000       
O-AV-208        	3968716.195       	3701980.000       
O-AV-209        	3968742.415       	3702017.000       
O-AV-21         	3959868.618       	3691236.000       
O-AV-210        	3961929.790       	3701259.000       
O-AV-211        	3968749.786       	3701982.000       
O-AV-212        	3968558.459       	3702014.000       
O-AV-213        	3968456.072       	3702058.000       
O-AV-214        	3969150.329       	3702004.000       
O-AV-215        	3968879.019       	3702175.000       
O-AV-216        	3968873.985       	3702201.000       
O-AV-217        	3970130.111       	3701890.000       
O-AV-218        	3970166.316       	3701835.000       
O-AV-219        	3969976.730       	3701176.000       
O-AV-22         	3959931.961       	3691211.000       
O-AV-220        	3969984.379       	3701129.000       
O-AV-221        	3960387.674       	3705902.000       
O-AV-222        	3961959.403       	3701209.000       
O-AV-223        	3969995.459       	3701132.000       
O-AV-224        	3969929.204       	3701168.000       
O-AV-225        	3967870.337       	3700723.000       
O-AV-226        	3967527.432       	3700980.000       
O-AV-227        	3967325.335       	3701106.000       
O-AV-228        	3967295.144       	3700859.000       
O-AV-229        	3967308.057       	3700672.000       
O-AV-23         	3960000.133       	3690858.000       
O-AV-230        	3967149.180       	3701269.000       
O-AV-231        	3967147.184       	3701236.000       
O-AV-232        	3967125.696       	3701233.000       
O-AV-233        	3961012.809       	3701052.000       
O-AV-234        	3967116.036       	3701240.000       
O-AV-235        	3967126.961       	3701249.000       
O-AV-236        	3967108.980       	3701261.000       
O-AV-237        	3967094.952       	3701239.000       
O-AV-238        	3966587.129       	3700917.000       
O-AV-239        	3966587.245       	3700887.000       
O-AV-24         	3960042.421       	3690855.000       
O-AV-240        	3966559.516       	3700905.000       
O-AV-241        	3966563.030       	3700880.000       
O-AV-242        	3966370.441       	3701051.000       
O-AV-243        	3966342.632       	3701009.000       
O-AV-244        	3960873.929       	3699924.000       
O-AV-245        	3966363.756       	3699993.000       
O-AV-246        	3966858.020       	3699871.000       
O-AV-247        	3966596.764       	3699775.000       
O-AV-248        	3967408.275       	3700146.000       
O-AV-249        	3967431.418       	3700137.000       
O-AV-25         	3959869.859       	3691075.000       
O-AV-250        	3967424.536       	3700140.000       
O-AV-251        	3967428.251       	3700124.000       
O-AV-252        	3968050.302       	3699950.000       
O-AV-253        	3968126.031       	3699629.000       
O-AV-254        	3960921.410       	3699905.000       
O-AV-255        	3967867.485       	3699561.000       
O-AV-256        	3967813.666       	3699548.000       
O-AV-257        	3967571.888       	3699480.000       
O-AV-258        	3967581.565       	3699442.000       
O-AV-259        	3967528.137       	3699440.000       
O-AV-26         	3960460.007       	3699319.000       
O-AV-260        	3967686.475       	3699222.000       
O-AV-261        	3967767.898       	3699258.000       
O-AV-262        	3967804.630       	3699266.000       
O-AV-263        	3967659.091       	3699212.000       
O-AV-264        	3961513.874       	3699626.000       
O-AV-265        	3966474.601       	3699272.000       
O-AV-266        	3966502.963       	3699262.000       
O-AV-267        	3966512.198       	3699291.000       
O-AV-268        	3966338.248       	3699669.000       
O-AV-269        	3966310.997       	3699680.000       
O-AV-27         	3963559.235       	3692570.000       
O-AV-270        	3970820.825       	3701476.000       
O-AV-271        	3970908.198       	3701506.000       
O-AV-272        	3970962.338       	3701148.000       
O-AV-273        	3970654.361       	3700702.000       
O-AV-274        	3970371.805       	3700898.000       
O-AV-275        	3961849.421       	3700424.000       
O-AV-276        	3966486.775       	3705944.000       
O-AV-277        	3966731.685       	3705580.000       
O-AV-278        	3966756.012       	3705541.000       
O-AV-279        	3966724.375       	3705549.000       
O-AV-28         	3964005.460       	3692602.000       
O-AV-280        	3968764.962       	3705232.000       
O-AV-281        	3968830.509       	3704957.000       
O-AV-282        	3968812.790       	3704912.000       
O-AV-283        	3968439.677       	3705165.000       
O-AV-284        	3968525.452       	3704714.000       
O-AV-285        	3968535.975       	3704705.000       
O-AV-286        	3961853.443       	3700455.000       
O-AV-287        	3967064.472       	3705084.000       
O-AV-288        	3967046.370       	3705082.000       
O-AV-289        	3967029.286       	3705086.000       
O-AV-29         	3962660.391       	3694574.000       
O-AV-290        	3967301.682       	3704646.000       
O-AV-291        	3966376.781       	3705335.000       
O-AV-292        	3966368.700       	3705308.000       
O-AV-293        	3966563.190       	3705089.000       
O-AV-294        	3966551.269       	3705023.000       
O-AV-295        	3966533.294       	3705052.000       
O-AV-296        	3966642.350       	3704841.000       
O-AV-297        	3961864.059       	3700404.000       
O-AV-298        	3966644.402       	3704870.000       
O-AV-299        	3966673.558       	3704861.000       
O-AV-3          	3967670.610       	3700385.000       
O-AV-30         	3962462.377       	3694022.000       
O-AV-300        	3966498.114       	3704747.000       
O-AV-301        	3966500.862       	3704719.000       
O-AV-302        	3966589.245       	3704570.000       
O-AV-303        	3966574.877       	3704537.000       
O-AV-304        	3966494.115       	3704210.000       
O-AV-305        	3966490.710       	3704184.000       
O-AV-306        	3966371.735       	3704109.000       
O-AV-307        	3966564.134       	3704183.000       
O-AV-308        	3961997.348       	3699594.000       
O-AV-309        	3966587.143       	3704171.000       
O-AV-31         	3962483.565       	3694054.000       
O-AV-310        	3966932.531       	3704419.000       
O-AV-311        	3967637.563       	3704131.000       
O-AV-312        	3967648.506       	3704154.000       
O-AV-313        	3967675.018       	3704116.000       
O-AV-314        	3967686.099       	3704100.000       
O-AV-315        	3967724.368       	3704066.000       
O-AV-316        	3968192.364       	3704501.000       
O-AV-317        	3968001.598       	3704472.000       
O-AV-318        	3968005.610       	3704443.000       
O-AV-319        	3962015.290       	3699602.000       
O-AV-32         	3962490.064       	3693992.000       
O-AV-320        	3968032.480       	3704422.000       
O-AV-321        	3968546.665       	3704495.000       
O-AV-322        	3968572.501       	3704501.000       
O-AV-323        	3968892.846       	3704575.000       
O-AV-324        	3968767.451       	3703545.000       
O-AV-325        	3968233.289       	3703416.000       
O-AV-326        	3968229.188       	3703447.000       
O-AV-327        	3968261.307       	3703425.000       
O-AV-328        	3968044.899       	3703570.000       
O-AV-329        	3968086.981       	3703163.000       
O-AV-33         	3963356.940       	3695507.000       
O-AV-330        	3960381.175       	3705830.000       
O-AV-331        	3962045.819       	3699579.000       
O-AV-332        	3968064.632       	3703156.000       
O-AV-333        	3968300.201       	3703026.000       
O-AV-334        	3968286.081       	3703028.000       
O-AV-335        	3968290.496       	3703011.000       
O-AV-336        	3968304.848       	3703015.000       
O-AV-337        	3967752.316       	3703128.000       
O-AV-338        	3966715.118       	3703545.000       
O-AV-339        	3966724.396       	3703539.000       
O-AV-34         	3963354.910       	3695539.000       
O-AV-340        	3966373.837       	3702795.000       
O-AV-341        	3966230.097       	3702227.000       
O-AV-342        	3961766.207       	3699510.000       
O-AV-343        	3966552.551       	3702164.000       
O-AV-344        	3967425.572       	3702695.000       
O-AV-345        	3969026.831       	3702499.000       
O-AV-346        	3969055.965       	3702514.000       
O-AV-347        	3969095.324       	3702451.000       
O-AV-348        	3969024.302       	3702427.000       
O-AV-349        	3971021.470       	3706063.000       
O-AV-35         	3964154.507       	3695618.000       
O-AV-350        	3971013.572       	3706138.000       
O-AV-351        	3971458.852       	3705488.000       
O-AV-352        	3971518.596       	3705455.000       
O-AV-353        	3961317.095       	3698724.000       
O-AV-354        	3971790.451       	3706369.000       
O-AV-355        	3972608.799       	3704796.000       
O-AV-356        	3972635.956       	3704957.000       
O-AV-357        	3972616.825       	3704762.000       
O-AV-358        	3972551.266       	3704677.000       
O-AV-359        	3972226.421       	3704878.000       
O-AV-36         	3962987.063       	3695107.000       
O-AV-360        	3972147.094       	3704917.000       
O-AV-361        	3972021.217       	3704933.000       
O-AV-362        	3972024.401       	3704962.000       
O-AV-363        	3971578.550       	3704725.000       
O-AV-364        	3961344.913       	3698728.000       
O-AV-365        	3971621.210       	3704719.000       
O-AV-366        	3970347.636       	3703711.000       
O-AV-367        	3971358.131       	3704453.000       
O-AV-368        	3971855.799       	3704522.000       
O-AV-369        	3971898.848       	3704512.000       
O-AV-37         	3960173.870       	3699333.000       
O-AV-370        	3972389.649       	3704156.000       
O-AV-371        	3972417.000       	3704182.000       
O-AV-372        	3972392.780       	3704133.000       
O-AV-373        	3972143.246       	3703958.000       
O-AV-374        	3972215.317       	3703928.000       
O-AV-375        	3961589.072       	3698635.000       
O-AV-376        	3972662.304       	3704475.000       
O-AV-377        	3972381.353       	3707079.000       
O-AV-378        	3972071.356       	3706696.000       
O-AV-379        	3972016.640       	3706616.000       
O-AV-38         	3962900.341       	3695390.000       
O-AV-380        	3972014.390       	3706649.000       
O-AV-381        	3971333.827       	3706828.000       
O-AV-382        	3970997.756       	3706288.000       
O-AV-383        	3971074.835       	3706308.000       
O-AV-384        	3971081.541       	3706346.000       
O-AV-385        	3966460.202       	3707777.000       
O-AV-386        	3961871.013       	3698555.000       
O-AV-387        	3966352.392       	3708079.000       
O-AV-388        	3967302.320       	3708079.000       
O-AV-389        	3968663.575       	3708210.000       
O-AV-39         	3963113.979       	3695470.000       
O-AV-390        	3968744.103       	3708327.000       
O-AV-391        	3969005.618       	3708281.000       
O-AV-392        	3969017.392       	3708297.000       
O-AV-393        	3969025.811       	3708255.000       
O-AV-394        	3968893.458       	3708909.000       
O-AV-395        	3968873.901       	3708885.000       
O-AV-396        	3968903.019       	3708864.000       
O-AV-397        	3961907.261       	3698529.000       
O-AV-398        	3966269.374       	3706603.000       
O-AV-399        	3966091.746       	3707579.000       
O-AV-4          	3960221.302       	3704147.000       
O-AV-40         	3962969.386       	3696328.000       
O-AV-400        	3966069.746       	3707605.000       
O-AV-401        	3966068.476       	3707552.000       
O-AV-402        	3965952.803       	3708021.000       
O-AV-403        	3965944.948       	3708217.000       
O-AV-404        	3966271.116       	3708306.000       
O-AV-405        	3972039.405       	3706603.000       
O-AV-406        	3972039.089       	3706625.000       
O-AV-407        	3972037.788       	3706678.000       
O-AV-408        	3962105.649       	3698343.000       
O-AV-409        	3966047.464       	3707639.000       
O-AV-41         	3962929.302       	3696322.000       
O-AV-410        	3966042.068       	3707579.000       
O-AV-411        	3977750.309       	3679386.000       
O-AV-412        	3960278.744       	3695426.000       
O-AV-413        	3959095.544       	3695121.000       
O-AV-414        	3960527.627       	3705901.000       
O-AV-415        	3959120.985       	3695164.000       
O-AV-416        	3959085.178       	3695158.000       
O-AV-417        	3959149.911       	3695172.000       
O-AV-418        	3959161.783       	3694954.000       
O-AV-419        	3958712.257       	3694592.000       
O-AV-42         	3962953.835       	3696278.000       
O-AV-420        	3958850.881       	3695154.000       
O-AV-421        	3958869.871       	3695174.000       
O-AV-422        	3958811.621       	3695257.000       
O-AV-423        	3958450.920       	3695106.000       
O-AV-424        	3958432.658       	3695135.000       
O-AV-425        	3960346.424       	3704684.000       
O-AV-426        	3961294.785       	3697945.000       
O-AV-427        	3961720.035       	3696985.000       
O-AV-428        	3961761.618       	3697018.000       
O-AV-429        	3960901.274       	3696420.000       
O-AV-43         	3964155.404       	3696312.000       
O-AV-430        	3961061.925       	3696553.000       
O-AV-431        	3958535.503       	3696435.000       
O-AV-432        	3958553.632       	3696260.000       
O-AV-433        	3958503.044       	3695689.000       
O-AV-434        	3959366.560       	3696378.000       
O-AV-435        	3959950.977       	3695972.000       
O-AV-436        	3960377.805       	3704654.000       
O-AV-437        	3960465.328       	3695952.000       
O-AV-438        	3960496.573       	3695948.000       
O-AV-439        	3960441.807       	3696015.000       
O-AV-44         	3964173.498       	3697153.000       
O-AV-440        	3960383.211       	3695993.000       
O-AV-441        	3960946.326       	3696269.000       
O-AV-442        	3960957.309       	3696312.000       
O-AV-443        	3960722.445       	3695148.000       
O-AV-444        	3960285.226       	3694191.000       
O-AV-445        	3960603.075       	3694151.000       
O-AV-446        	3960595.087       	3694004.000       
O-AV-447        	3960341.890       	3704628.000       
O-AV-448        	3961599.840       	3694161.000       
O-AV-449        	3961657.127       	3694174.000       
O-AV-45         	3964157.576       	3696898.000       
O-AV-450        	3962385.667       	3694562.000       
O-AV-451        	3961835.947       	3693914.000       
O-AV-452        	3962658.522       	3694917.000       
O-AV-453        	3962643.434       	3694898.000       
O-AV-454        	3961567.321       	3693470.000       
O-AV-455        	3961533.794       	3693459.000       
O-AV-456        	3960399.924       	3693475.000       
O-AV-457        	3960363.750       	3693399.000       
O-AV-458        	3960009.914       	3704278.000       
O-AV-459        	3960054.103       	3693404.000       
O-AV-46         	3963730.082       	3696849.000       
O-AV-460        	3959754.866       	3693370.000       
O-AV-461        	3959654.296       	3693346.000       
O-AV-462        	3959439.639       	3693504.000       
O-AV-463        	3959422.007       	3693409.000       
O-AV-464        	3959388.813       	3693394.000       
O-AV-465        	3959413.614       	3693359.000       
O-AV-466        	3959190.078       	3692348.000       
O-AV-467        	3959652.821       	3692759.000       
O-AV-468        	3959740.226       	3692557.000       
O-AV-47         	3962868.804       	3696514.000       
O-AV-48         	3960285.521       	3699623.000       
O-AV-49         	3962778.181       	3697122.000       
O-AV-5          	3959640.588       	3692576.000       
O-AV-50         	3962756.165       	3697076.000       
O-AV-51         	3962615.969       	3697743.000       
O-AV-52         	3962615.030       	3697758.000       
O-AV-53         	3962621.522       	3697729.000       
O-AV-54         	3962629.500       	3697735.000       
O-AV-55         	3962622.028       	3697743.000       
O-AV-56         	3962639.832       	3697734.000       
O-AV-57         	3963024.493       	3698020.000       
O-AV-58         	3962991.957       	3698024.000       
O-AV-59         	3960274.292       	3699669.000       
O-AV-6          	3960171.489       	3692855.000       
O-AV-60         	3962986.286       	3698008.000       
O-AV-61         	3962960.280       	3697988.000       
O-AV-62         	3962947.688       	3698005.000       
O-AV-63         	3962970.110       	3698007.000       
O-AV-64         	3963478.658       	3697369.000       
O-AV-65         	3963340.181       	3697515.000       
O-AV-66         	3963345.789       	3697547.000       
O-AV-67         	3963353.890       	3697628.000       
O-AV-68         	3963377.032       	3697711.000       
O-AV-69         	3963405.393       	3697698.000       
O-AV-7          	3960451.929       	3692659.000       
O-AV-70         	3960450.880       	3699607.000       
O-AV-71         	3963399.213       	3697674.000       
O-AV-72         	3963700.491       	3697891.000       
O-AV-73         	3963318.015       	3697889.000       
O-AV-74         	3964176.174       	3697440.000       
O-AV-75         	3963982.725       	3697446.000       
O-AV-76         	3963974.700       	3697691.000       
O-AV-77         	3964047.055       	3697617.000       
O-AV-78         	3964079.797       	3697676.000       
O-AV-79         	3964350.328       	3697970.000       
O-AV-8          	3960470.837       	3692689.000       
O-AV-80         	3964595.141       	3697861.000       
O-AV-81         	3960365.180       	3700143.000       
O-AV-82         	3963145.135       	3698143.000       
O-AV-83         	3963099.564       	3698100.000       
O-AV-84         	3963088.045       	3698117.000       
O-AV-85         	3964122.434       	3699586.000       
O-AV-86         	3964085.715       	3699605.000       
O-AV-87         	3964112.088       	3699571.000       
O-AV-88         	3964428.366       	3699141.000       
O-AV-89         	3964459.368       	3699164.000       
O-AV-9          	3960476.729       	3692636.000       
O-AV-90         	3964432.476       	3699167.000       
O-AV-91         	3964942.986       	3699573.000       
O-AV-92         	3960207.444       	3700195.000       
O-AV-93         	3964983.130       	3699572.000       
O-AV-94         	3966098.828       	3700407.000       
O-AV-95         	3966071.166       	3700418.000       
O-AV-96         	3965979.757       	3700374.000       
O-AV-97         	3964620.171       	3700363.000       
O-AV-98         	3964619.979       	3699960.000       
O-AV-99         	3964449.799       	3700256.000       
O-Pump-1        	3971500.305       	3700285.000       
O-Pump-2        	3971500.706       	3700284.000       
O-Pump-3        	3963528.603       	3697964.000       
O-P-~@Pump-1    	3971500.305       	3700285.000       
O-P-~@Pump-2    	3971500.706       	3700284.000       
O-P-~@Pump-3    	3963528.603       	3697964.000       
O-V-~@AV-1      	3963525.949       	3697967.000       
O-V-~@AV-10     	3960459.430       	3692603.000       
O-V-~@AV-100    	3964408.836       	3700229.000       
O-V-~@AV-101    	3963794.866       	3699968.000       
O-V-~@AV-102    	3960562.089       	3700050.000       
O-V-~@AV-103    	3963800.896       	3699987.000       
O-V-~@AV-104    	3963014.700       	3699807.000       
O-V-~@AV-105    	3962933.805       	3700262.000       
O-V-~@AV-106    	3962946.982       	3700211.000       
O-V-~@AV-107    	3962513.285       	3700501.000       
O-V-~@AV-108    	3965042.763       	3701207.000       
O-V-~@AV-109    	3965068.073       	3701214.000       
O-V-~@AV-11     	3960477.556       	3692538.000       
O-V-~@AV-110    	3965047.005       	3700633.000       
O-V-~@AV-111    	3965046.592       	3700610.000       
O-V-~@AV-112    	3965481.112       	3700910.000       
O-V-~@AV-113    	3977806.332       	3679403.000       
O-V-~@AV-114    	3960554.714       	3700012.000       
O-V-~@AV-115    	3965473.099       	3700935.000       
O-V-~@AV-116    	3965515.663       	3700932.000       
O-V-~@AV-117    	3965978.167       	3701219.000       
O-V-~@AV-118    	3965909.637       	3700519.000       
O-V-~@AV-119    	3965943.099       	3701945.000       
O-V-~@AV-12     	3960461.663       	3692771.000       
O-V-~@AV-120    	3965902.429       	3701953.000       
O-V-~@AV-121    	3965866.601       	3701967.000       
O-V-~@AV-122    	3965724.825       	3701751.000       
O-V-~@AV-123    	3965698.364       	3701735.000       
O-V-~@AV-124    	3960341.588       	3698739.000       
O-V-~@AV-125    	3965475.597       	3701745.000       
O-V-~@AV-126    	3965454.748       	3701725.000       
O-V-~@AV-127    	3965300.703       	3702116.000       
O-V-~@AV-128    	3965252.099       	3701629.000       
O-V-~@AV-129    	3965268.034       	3701588.000       
O-V-~@AV-13     	3959641.364       	3691920.000       
O-V-~@AV-130    	3958275.134       	3694029.000       
O-V-~@AV-131    	3957347.644       	3693425.000       
O-V-~@AV-132    	3957360.517       	3693440.000       
O-V-~@AV-133    	3957341.870       	3693464.000       
O-V-~@AV-134    	3956839.288       	3692845.000       
O-V-~@AV-135    	3960476.536       	3698685.000       
O-V-~@AV-136    	3956793.273       	3692855.000       
O-V-~@AV-137    	3956946.383       	3692677.000       
O-V-~@AV-138    	3956981.298       	3692699.000       
O-V-~@AV-139    	3957984.889       	3693184.000       
O-V-~@AV-14     	3959647.412       	3691951.000       
O-V-~@AV-140    	3965285.792       	3686271.000       
O-V-~@AV-141    	3965224.711       	3686276.000       
O-V-~@AV-142    	3964213.923       	3686991.000       
O-V-~@AV-143    	3964603.098       	3687299.000       
O-V-~@AV-144    	3964620.739       	3687295.000       
O-V-~@AV-145    	3964996.870       	3687561.000       
O-V-~@AV-146    	3960511.221       	3698690.000       
O-V-~@AV-147    	3965396.991       	3687843.000       
O-V-~@AV-148    	3964652.137       	3705302.000       
O-V-~@AV-149    	3964653.844       	3705278.000       
O-V-~@AV-15     	3960218.238       	3699263.000       
O-V-~@AV-150    	3965836.310       	3704580.000       
O-V-~@AV-151    	3965613.623       	3704582.000       
O-V-~@AV-152    	3965605.959       	3704506.000       
O-V-~@AV-153    	3965298.977       	3704634.000       
O-V-~@AV-154    	3965244.256       	3704599.000       
O-V-~@AV-155    	3964728.423       	3704877.000       
O-V-~@AV-156    	3964900.119       	3704715.000       
O-V-~@AV-157    	3960205.973       	3698421.000       
O-V-~@AV-158    	3964557.926       	3704952.000       
O-V-~@AV-159    	3964523.856       	3704931.000       
O-V-~@AV-16     	3959429.118       	3692126.000       
O-V-~@AV-160    	3964574.778       	3704914.000       
O-V-~@AV-161    	3964203.263       	3705005.000       
O-V-~@AV-162    	3964152.485       	3705012.000       
O-V-~@AV-163    	3964184.611       	3705030.000       
O-V-~@AV-164    	3964199.132       	3705139.000       
O-V-~@AV-165    	3963996.798       	3705033.000       
O-V-~@AV-166    	3963984.774       	3705041.000       
O-V-~@AV-167    	3964885.187       	3704018.000       
O-V-~@AV-168    	3960382.747       	3698189.000       
O-V-~@AV-169    	3964904.421       	3704032.000       
O-V-~@AV-17     	3959388.679       	3692117.000       
O-V-~@AV-170    	3964893.772       	3704083.000       
O-V-~@AV-171    	3965188.356       	3704027.000       
O-V-~@AV-172    	3965206.524       	3703998.000       
O-V-~@AV-173    	3966062.092       	3704028.000       
O-V-~@AV-174    	3965776.495       	3704034.000       
O-V-~@AV-175    	3965782.754       	3704018.000       
O-V-~@AV-176    	3965749.969       	3704019.000       
O-V-~@AV-177    	3965736.901       	3704016.000       
O-V-~@AV-178    	3965501.204       	3703134.000       
O-V-~@AV-179    	3960460.072       	3698095.000       
O-V-~@AV-18     	3959390.446       	3692078.000       
O-V-~@AV-180    	3965493.205       	3703131.000       
O-V-~@AV-181    	3965475.559       	3703154.000       
O-V-~@AV-182    	3965459.757       	3703138.000       
O-V-~@AV-183    	3965898.159       	3703027.000       
O-V-~@AV-184    	3965815.277       	3702983.000       
O-V-~@AV-185    	3965161.695       	3703127.000       
O-V-~@AV-186    	3965143.803       	3703250.000       
O-V-~@AV-187    	3965140.375       	3703548.000       
O-V-~@AV-188    	3964813.152       	3703292.000       
O-V-~@AV-189    	3964829.599       	3703566.000       
O-V-~@AV-19     	3959889.847       	3691685.000       
O-V-~@AV-190    	3960913.100       	3701315.000       
O-V-~@AV-191    	3964827.106       	3703061.000       
O-V-~@AV-192    	3964811.449       	3703047.000       
O-V-~@AV-193    	3964797.805       	3702939.000       
O-V-~@AV-194    	3964852.116       	3702926.000       
O-V-~@AV-195    	3965298.969       	3702604.000       
O-V-~@AV-196    	3965774.953       	3702283.000       
O-V-~@AV-197    	3965786.830       	3702294.000       
O-V-~@AV-198    	3965789.838       	3702247.000       
O-V-~@AV-199    	3962187.981       	3701968.000       
O-V-~@AV-2      	3967974.416       	3699307.000       
O-V-~@AV-20     	3959886.674       	3691653.000       
O-V-~@AV-200    	3965795.123       	3702291.000       
O-V-~@AV-201    	3966349.237       	3701872.000       
O-V-~@AV-202    	3966367.992       	3701838.000       
O-V-~@AV-204    	3967030.895       	3702049.000       
O-V-~@AV-205    	3967035.929       	3702023.000       
O-V-~@AV-206    	3966887.299       	3701402.000       
O-V-~@AV-207    	3966919.740       	3701381.000       
O-V-~@AV-208    	3968716.195       	3701980.000       
O-V-~@AV-209    	3968742.415       	3702017.000       
O-V-~@AV-21     	3959868.618       	3691236.000       
O-V-~@AV-210    	3961929.790       	3701259.000       
O-V-~@AV-211    	3968749.786       	3701982.000       
O-V-~@AV-212    	3968558.459       	3702014.000       
O-V-~@AV-213    	3968456.072       	3702058.000       
O-V-~@AV-214    	3969150.329       	3702004.000       
O-V-~@AV-215    	3968879.019       	3702175.000       
O-V-~@AV-216    	3968873.985       	3702201.000       
O-V-~@AV-217    	3970130.111       	3701890.000       
O-V-~@AV-218    	3970166.316       	3701835.000       
O-V-~@AV-219    	3969976.730       	3701176.000       
O-V-~@AV-22     	3959931.961       	3691211.000       
O-V-~@AV-220    	3969984.379       	3701129.000       
O-V-~@AV-221    	3960387.674       	3705902.000       
O-V-~@AV-222    	3961959.403       	3701209.000       
O-V-~@AV-223    	3969995.459       	3701132.000       
O-V-~@AV-224    	3969929.204       	3701168.000       
O-V-~@AV-225    	3967870.337       	3700723.000       
O-V-~@AV-226    	3967527.432       	3700980.000       
O-V-~@AV-227    	3967325.335       	3701106.000       
O-V-~@AV-228    	3967295.144       	3700859.000       
O-V-~@AV-229    	3967308.057       	3700672.000       
O-V-~@AV-23     	3960000.133       	3690858.000       
O-V-~@AV-230    	3967149.180       	3701269.000       
O-V-~@AV-231    	3967147.184       	3701236.000       
O-V-~@AV-232    	3967125.696       	3701233.000       
O-V-~@AV-233    	3961012.809       	3701052.000       
O-V-~@AV-234    	3967116.036       	3701240.000       
O-V-~@AV-235    	3967126.961       	3701249.000       
O-V-~@AV-236    	3967108.980       	3701261.000       
O-V-~@AV-237    	3967094.952       	3701239.000       
O-V-~@AV-238    	3966587.129       	3700917.000       
O-V-~@AV-239    	3966587.245       	3700887.000       
O-V-~@AV-24     	3960042.421       	3690855.000       
O-V-~@AV-240    	3966559.516       	3700905.000       
O-V-~@AV-241    	3966563.030       	3700880.000       
O-V-~@AV-242    	3966370.441       	3701051.000       
O-V-~@AV-243    	3966342.632       	3701009.000       
O-V-~@AV-244    	3960873.929       	3699924.000       
O-V-~@AV-245    	3966363.756       	3699993.000       
O-V-~@AV-246    	3966858.020       	3699871.000       
O-V-~@AV-247    	3966596.764       	3699775.000       
O-V-~@AV-248    	3967408.275       	3700146.000       
O-V-~@AV-249    	3967431.418       	3700137.000       
O-V-~@AV-25     	3959869.859       	3691075.000       
O-V-~@AV-250    	3967424.536       	3700140.000       
O-V-~@AV-251    	3967428.251       	3700124.000       
O-V-~@AV-252    	3968050.302       	3699950.000       
O-V-~@AV-253    	3968126.031       	3699629.000       
O-V-~@AV-254    	3960921.410       	3699905.000       
O-V-~@AV-255    	3967867.485       	3699561.000       
O-V-~@AV-256    	3967813.666       	3699548.000       
O-V-~@AV-257    	3967571.888       	3699480.000       
O-V-~@AV-258    	3967581.565       	3699442.000       
O-V-~@AV-259    	3967528.137       	3699440.000       
O-V-~@AV-26     	3960460.007       	3699319.000       
O-V-~@AV-260    	3967686.475       	3699222.000       
O-V-~@AV-261    	3967767.898       	3699258.000       
O-V-~@AV-262    	3967804.630       	3699266.000       
O-V-~@AV-263    	3967659.091       	3699212.000       
O-V-~@AV-264    	3961513.874       	3699626.000       
O-V-~@AV-265    	3966474.601       	3699272.000       
O-V-~@AV-266    	3966502.963       	3699262.000       
O-V-~@AV-267    	3966512.198       	3699291.000       
O-V-~@AV-268    	3966338.248       	3699669.000       
O-V-~@AV-269    	3966310.997       	3699680.000       
O-V-~@AV-27     	3963559.235       	3692570.000       
O-V-~@AV-270    	3970820.825       	3701476.000       
O-V-~@AV-271    	3970908.198       	3701506.000       
O-V-~@AV-272    	3970962.338       	3701148.000       
O-V-~@AV-273    	3970654.361       	3700702.000       
O-V-~@AV-274    	3970371.805       	3700898.000       
O-V-~@AV-275    	3961849.421       	3700424.000       
O-V-~@AV-276    	3966486.775       	3705944.000       
O-V-~@AV-277    	3966731.685       	3705580.000       
O-V-~@AV-278    	3966756.012       	3705541.000       
O-V-~@AV-279    	3966724.375       	3705549.000       
O-V-~@AV-28     	3964005.460       	3692602.000       
O-V-~@AV-280    	3968764.962       	3705232.000       
O-V-~@AV-281    	3968830.509       	3704957.000       
O-V-~@AV-282    	3968812.790       	3704912.000       
O-V-~@AV-283    	3968439.677       	3705165.000       
O-V-~@AV-284    	3968525.452       	3704714.000       
O-V-~@AV-285    	3968535.975       	3704705.000       
O-V-~@AV-286    	3961853.443       	3700455.000       
O-V-~@AV-287    	3967064.472       	3705084.000       
O-V-~@AV-288    	3967046.370       	3705082.000       
O-V-~@AV-289    	3967029.286       	3705086.000       
O-V-~@AV-29     	3962660.391       	3694574.000       
O-V-~@AV-290    	3967301.682       	3704646.000       
O-V-~@AV-291    	3966376.781       	3705335.000       
O-V-~@AV-292    	3966368.700       	3705308.000       
O-V-~@AV-293    	3966563.190       	3705089.000       
O-V-~@AV-294    	3966551.269       	3705023.000       
O-V-~@AV-295    	3966533.294       	3705052.000       
O-V-~@AV-296    	3966642.350       	3704841.000       
O-V-~@AV-297    	3961864.059       	3700404.000       
O-V-~@AV-298    	3966644.402       	3704870.000       
O-V-~@AV-299    	3966673.558       	3704861.000       
O-V-~@AV-3      	3967670.610       	3700385.000       
O-V-~@AV-30     	3962462.377       	3694022.000       
O-V-~@AV-300    	3966498.114       	3704747.000       
O-V-~@AV-301    	3966500.862       	3704719.000       
O-V-~@AV-302    	3966589.245       	3704570.000       
O-V-~@AV-303    	3966574.877       	3704537.000       
O-V-~@AV-304    	3966494.115       	3704210.000       
O-V-~@AV-305    	3966490.710       	3704184.000       
O-V-~@AV-306    	3966371.735       	3704109.000       
O-V-~@AV-307    	3966564.134       	3704183.000       
O-V-~@AV-308    	3961997.348       	3699594.000       
O-V-~@AV-309    	3966587.143       	3704171.000       
O-V-~@AV-31     	3962483.565       	3694054.000       
O-V-~@AV-310    	3966932.531       	3704419.000       
O-V-~@AV-311    	3967637.563       	3704131.000       
O-V-~@AV-312    	3967648.506       	3704154.000       
O-V-~@AV-313    	3967675.018       	3704116.000       
O-V-~@AV-314    	3967686.099       	3704100.000       
O-V-~@AV-315    	3967724.368       	3704066.000       
O-V-~@AV-316    	3968192.364       	3704501.000       
O-V-~@AV-317    	3968001.598       	3704472.000       
O-V-~@AV-318    	3968005.610       	3704443.000       
O-V-~@AV-319    	3962015.290       	3699602.000       
O-V-~@AV-32     	3962490.064       	3693992.000       
O-V-~@AV-320    	3968032.480       	3704422.000       
O-V-~@AV-321    	3968546.665       	3704495.000       
O-V-~@AV-322    	3968572.501       	3704501.000       
O-V-~@AV-323    	3968892.846       	3704575.000       
O-V-~@AV-324    	3968767.451       	3703545.000       
O-V-~@AV-325    	3968233.289       	3703416.000       
O-V-~@AV-326    	3968229.188       	3703447.000       
O-V-~@AV-327    	3968261.307       	3703425.000       
O-V-~@AV-328    	3968044.899       	3703570.000       
O-V-~@AV-329    	3968086.981       	3703163.000       
O-V-~@AV-33     	3963356.940       	3695507.000       
O-V-~@AV-330    	3960381.175       	3705830.000       
O-V-~@AV-331    	3962045.819       	3699579.000       
O-V-~@AV-332    	3968064.632       	3703156.000       
O-V-~@AV-333    	3968300.201       	3703026.000       
O-V-~@AV-334    	3968286.081       	3703028.000       
O-V-~@AV-335    	3968290.496       	3703011.000       
O-V-~@AV-336    	3968304.848       	3703015.000       
O-V-~@AV-337    	3967752.316       	3703128.000       
O-V-~@AV-338    	3966715.118       	3703545.000       
O-V-~@AV-339    	3966724.396       	3703539.000       
O-V-~@AV-34     	3963354.910       	3695539.000       
O-V-~@AV-340    	3966373.837       	3702795.000       
O-V-~@AV-341    	3966230.097       	3702227.000       
O-V-~@AV-342    	3961766.207       	3699510.000       
O-V-~@AV-343    	3966552.551       	3702164.000       
O-V-~@AV-344    	3967425.572       	3702695.000       
O-V-~@AV-345    	3969026.831       	3702499.000       
O-V-~@AV-346    	3969055.965       	3702514.000       
O-V-~@AV-347    	3969095.324       	3702451.000       
O-V-~@AV-348    	3969024.302       	3702427.000       
O-V-~@AV-349    	3971021.470       	3706063.000       
O-V-~@AV-35     	3964154.507       	3695618.000       
O-V-~@AV-350    	3971013.572       	3706138.000       
O-V-~@AV-351    	3971458.852       	3705488.000       
O-V-~@AV-352    	3971518.596       	3705455.000       
O-V-~@AV-353    	3961317.095       	3698724.000       
O-V-~@AV-354    	3971790.451       	3706369.000       
O-V-~@AV-355    	3972608.799       	3704796.000       
O-V-~@AV-356    	3972635.956       	3704957.000       
O-V-~@AV-357    	3972616.825       	3704762.000       
O-V-~@AV-358    	3972551.266       	3704677.000       
O-V-~@AV-359    	3972226.421       	3704878.000       
O-V-~@AV-36     	3962987.063       	3695107.000       
O-V-~@AV-360    	3972147.094       	3704917.000       
O-V-~@AV-361    	3972021.217       	3704933.000       
O-V-~@AV-362    	3972024.401       	3704962.000       
O-V-~@AV-363    	3971578.550       	3704725.000       
O-V-~@AV-364    	3961344.913       	3698728.000       
O-V-~@AV-365    	3971621.210       	3704719.000       
O-V-~@AV-366    	3970347.636       	3703711.000       
O-V-~@AV-367    	3971358.131       	3704453.000       
O-V-~@AV-368    	3971855.799       	3704522.000       
O-V-~@AV-369    	3971898.848       	3704512.000       
O-V-~@AV-37     	3960173.870       	3699333.000       
O-V-~@AV-370    	3972389.649       	3704156.000       
O-V-~@AV-371    	3972417.000       	3704182.000       
O-V-~@AV-372    	3972392.780       	3704133.000       
O-V-~@AV-373    	3972143.246       	3703958.000       
O-V-~@AV-374    	3972215.317       	3703928.000       
O-V-~@AV-375    	3961589.072       	3698635.000       
O-V-~@AV-376    	3972662.304       	3704475.000       
O-V-~@AV-377    	3972381.353       	3707079.000       
O-V-~@AV-378    	3972071.356       	3706696.000       
O-V-~@AV-379    	3972016.640       	3706616.000       
O-V-~@AV-38     	3962900.341       	3695390.000       
O-V-~@AV-380    	3972014.390       	3706649.000       
O-V-~@AV-381    	3971333.827       	3706828.000       
O-V-~@AV-382    	3970997.756       	3706288.000       
O-V-~@AV-383    	3971074.835       	3706308.000       
O-V-~@AV-384    	3971081.541       	3706346.000       
O-V-~@AV-385    	3966460.202       	3707777.000       
O-V-~@AV-386    	3961871.013       	3698555.000       
O-V-~@AV-387    	3966352.392       	3708079.000       
O-V-~@AV-388    	3967302.320       	3708079.000       
O-V-~@AV-389    	3968663.575       	3708210.000       
O-V-~@AV-39     	3963113.979       	3695470.000       
O-V-~@AV-390    	3968744.103       	3708327.000       
O-V-~@AV-391    	3969005.618       	3708281.000       
O-V-~@AV-392    	3969017.392       	3708297.000       
O-V-~@AV-393    	3969025.811       	3708255.000       
O-V-~@AV-394    	3968893.458       	3708909.000       
O-V-~@AV-395    	3968873.901       	3708885.000       
O-V-~@AV-396    	3968903.019       	3708864.000       
O-V-~@AV-397    	3961907.261       	3698529.000       
O-V-~@AV-398    	3966269.374       	3706603.000       
O-V-~@AV-399    	3966091.746       	3707579.000       
O-V-~@AV-4      	3960221.302       	3704147.000       
O-V-~@AV-40     	3962969.386       	3696328.000       
O-V-~@AV-400    	3966069.746       	3707605.000       
O-V-~@AV-401    	3966068.476       	3707552.000       
O-V-~@AV-402    	3965952.803       	3708021.000       
O-V-~@AV-403    	3965944.948       	3708217.000       
O-V-~@AV-404    	3966271.116       	3708306.000       
O-V-~@AV-405    	3972039.405       	3706603.000       
O-V-~@AV-406    	3972039.089       	3706625.000       
O-V-~@AV-407    	3972037.788       	3706678.000       
O-V-~@AV-408    	3962105.649       	3698343.000       
O-V-~@AV-409    	3966047.464       	3707639.000       
O-V-~@AV-41     	3962929.302       	3696322.000       
O-V-~@AV-410    	3966042.068       	3707579.000       
O-V-~@AV-411    	3977750.309       	3679386.000       
O-V-~@AV-412    	3960278.744       	3695426.000       
O-V-~@AV-413    	3959095.544       	3695121.000       
O-V-~@AV-414    	3960527.627       	3705901.000       
O-V-~@AV-415    	3959120.985       	3695164.000       
O-V-~@AV-416    	3959085.178       	3695158.000       
O-V-~@AV-417    	3959149.911       	3695172.000       
O-V-~@AV-418    	3959161.783       	3694954.000       
O-V-~@AV-419    	3958712.257       	3694592.000       
O-V-~@AV-42     	3962953.835       	3696278.000       
O-V-~@AV-420    	3958850.881       	3695154.000       
O-V-~@AV-421    	3958869.871       	3695174.000       
O-V-~@AV-422    	3958811.621       	3695257.000       
O-V-~@AV-423    	3958450.920       	3695106.000       
O-V-~@AV-424    	3958432.658       	3695135.000       
O-V-~@AV-425    	3960346.424       	3704684.000       
O-V-~@AV-426    	3961294.785       	3697945.000       
O-V-~@AV-427    	3961720.035       	3696985.000       
O-V-~@AV-428    	3961761.618       	3697018.000       
O-V-~@AV-429    	3960901.274       	3696420.000       
O-V-~@AV-43     	3964155.404       	3696312.000       
O-V-~@AV-430    	3961061.925       	3696553.000       
O-V-~@AV-431    	3958535.503       	3696435.000       
O-V-~@AV-432    	3958553.632       	3696260.000       
O-V-~@AV-433    	3958503.044       	3695689.000       
O-V-~@AV-434    	3959366.560       	3696378.000       
O-V-~@AV-435    	3959950.977       	3695972.000       
O-V-~@AV-436    	3960377.805       	3704654.000       
O-V-~@AV-437    	3960465.328       	3695952.000       
O-V-~@AV-438    	3960496.573       	3695948.000       
O-V-~@AV-439    	3960441.807       	3696015.000       
O-V-~@AV-44     	3964173.498       	3697153.000       
O-V-~@AV-440    	3960383.211       	3695993.000       
O-V-~@AV-441    	3960946.326       	3696269.000       
O-V-~@AV-442    	3960957.309       	3696312.000       
O-V-~@AV-443    	3960722.445       	3695148.000       
O-V-~@AV-444    	3960285.226       	3694191.000       
O-V-~@AV-445    	3960603.075       	3694151.000       
O-V-~@AV-446    	3960595.087       	3694004.000       
O-V-~@AV-447    	3960341.890       	3704628.000       
O-V-~@AV-448    	3961599.840       	3694161.000       
O-V-~@AV-449    	3961657.127       	3694174.000       
O-V-~@AV-45     	3964157.576       	3696898.000       
O-V-~@AV-450    	3962385.667       	3694562.000       
O-V-~@AV-451    	3961835.947       	3693914.000       
O-V-~@AV-452    	3962658.522       	3694917.000       
O-V-~@AV-453    	3962643.434       	3694898.000       
O-V-~@AV-454    	3961567.321       	3693470.000       
O-V-~@AV-455    	3961533.794       	3693459.000       
O-V-~@AV-456    	3960399.924       	3693475.000       
O-V-~@AV-457    	3960363.750       	3693399.000       
O-V-~@AV-458    	3960009.914       	3704278.000       
O-V-~@AV-459    	3960054.103       	3693404.000       
O-V-~@AV-46     	3963730.082       	3696849.000       
O-V-~@AV-460    	3959754.866       	3693370.000       
O-V-~@AV-461    	3959654.296       	3693346.000       
O-V-~@AV-462    	3959439.639       	3693504.000       
O-V-~@AV-463    	3959422.007       	3693409.000       
O-V-~@AV-464    	3959388.813       	3693394.000       
O-V-~@AV-465    	3959413.614       	3693359.000       
O-V-~@AV-466    	3959190.078       	3692348.000       
O-V-~@AV-467    	3959652.821       	3692759.000       
O-V-~@AV-468    	3959740.226       	3692557.000       
O-V-~@AV-47     	3962868.804       	3696514.000       
O-V-~@AV-48     	3960285.521       	3699623.000       
O-V-~@AV-49     	3962778.181       	3697122.000       
O-V-~@AV-5      	3959640.588       	3692576.000       
O-V-~@AV-50     	3962756.165       	3697076.000       
O-V-~@AV-51     	3962615.969       	3697743.000       
O-V-~@AV-52     	3962615.030       	3697758.000       
O-V-~@AV-53     	3962621.522       	3697729.000       
O-V-~@AV-54     	3962629.500       	3697735.000       
O-V-~@AV-55     	3962622.028       	3697743.000       
O-V-~@AV-56     	3962639.832       	3697734.000       
O-V-~@AV-57     	3963024.493       	3698020.000       
O-V-~@AV-58     	3962991.957       	3698024.000       
O-V-~@AV-59     	3960274.292       	3699669.000       
O-V-~@AV-6      	3960171.489       	3692855.000       
O-V-~@AV-60     	3962986.286       	3698008.000       
O-V-~@AV-61     	3962960.280       	3697988.000       
O-V-~@AV-62     	3962947.688       	3698005.000       
O-V-~@AV-63     	3962970.110       	3698007.000       
O-V-~@AV-64     	3963478.658       	3697369.000       
O-V-~@AV-65     	3963340.181       	3697515.000       
O-V-~@AV-66     	3963345.789       	3697547.000       
O-V-~@AV-67     	3963353.890       	3697628.000       
O-V-~@AV-68     	3963377.032       	3697711.000       
O-V-~@AV-69     	3963405.393       	3697698.000       
O-V-~@AV-7      	3960451.929       	3692659.000       
O-V-~@AV-70     	3960450.880       	3699607.000       
O-V-~@AV-71     	3963399.213       	3697674.000       
O-V-~@AV-72     	3963700.491       	3697891.000       
O-V-~@AV-73     	3963318.015       	3697889.000       
O-V-~@AV-74     	3964176.174       	3697440.000       
O-V-~@AV-75     	3963982.725       	3697446.000       
O-V-~@AV-76     	3963974.700       	3697691.000       
O-V-~@AV-77     	3964047.055       	3697617.000       
O-V-~@AV-78     	3964079.797       	3697676.000       
O-V-~@AV-79     	3964350.328       	3697970.000       
O-V-~@AV-8      	3960470.837       	3692689.000       
O-V-~@AV-80     	3964595.141       	3697861.000       
O-V-~@AV-81     	3960365.180       	3700143.000       
O-V-~@AV-82     	3963145.135       	3698143.000       
O-V-~@AV-83     	3963099.564       	3698100.000       
O-V-~@AV-84     	3963088.045       	3698117.000       
O-V-~@AV-85     	3964122.434       	3699586.000       
O-V-~@AV-86     	3964085.715       	3699605.000       
O-V-~@AV-87     	3964112.088       	3699571.000       
O-V-~@AV-88     	3964428.366       	3699141.000       
O-V-~@AV-89     	3964459.368       	3699164.000       
O-V-~@AV-9      	3960476.729       	3692636.000       
O-V-~@AV-90     	3964432.476       	3699167.000       
O-V-~@AV-91     	3964942.986       	3699573.000       
O-V-~@AV-92     	3960207.444       	3700195.000       
O-V-~@AV-93     	3964983.130       	3699572.000       
O-V-~@AV-94     	3966098.828       	3700407.000       
O-V-~@AV-95     	3966071.166       	3700418.000       
O-V-~@AV-96     	3965979.757       	3700374.000       
O-V-~@AV-97     	3964620.171       	3700363.000       
O-V-~@AV-98     	3964619.979       	3699960.000       
O-V-~@AV-99     	3964449.799       	3700256.000       
I-P-~@Pump-1    	3971500.305       	3700285.000       
I-P-~@Pump-2    	3971500.706       	3700284.000       
I-P-~@Pump-3    	3963528.603       	3697964.000       
I-V-~@AV-1      	3963525.949       	3697967.000       
I-V-~@AV-10     	3960459.430       	3692603.000       
I-V-~@AV-100    	3964408.836       	3700229.000       
I-V-~@AV-101    	3963794.866       	3699968.000       
I-V-~@AV-102    	3960562.089       	3700050.000       
I-V-~@AV-103    	3963800.896       	3699987.000       
I-V-~@AV-104    	3963014.700       	3699807.000       
I-V-~@AV-105    	3962933.805       	3700262.000       
I-V-~@AV-106    	3962946.982       	3700211.000       
I-V-~@AV-107    	3962513.285       	3700501.000       
I-V-~@AV-108    	3965042.763       	3701207.000       
I-V-~@AV-109    	3965068.073       	3701214.000       
I-V-~@AV-11     	3960477.556       	3692538.000       
I-V-~@AV-110    	3965047.005       	3700633.000       
I-V-~@AV-111    	3965046.592       	3700610.000       
I-V-~@AV-112    	3965481.112       	3700910.000       
I-V-~@AV-113    	3977806.332       	3679403.000       
I-V-~@AV-114    	3960554.714       	3700012.000       
I-V-~@AV-115    	3965473.099       	3700935.000       
I-V-~@AV-116    	3965515.663       	3700932.000       
I-V-~@AV-117    	3965978.167       	3701219.000       
I-V-~@AV-118    	3965909.637       	3700519.000       
I-V-~@AV-119    	3965943.099       	3701945.000       
I-V-~@AV-12     	3960461.663       	3692771.000       
I-V-~@AV-120    	3965902.429       	3701953.000       
I-V-~@AV-121    	3965866.601       	3701967.000       
I-V-~@AV-122    	3965724.825       	3701751.000       
I-V-~@AV-123    	3965698.364       	3701735.000       
I-V-~@AV-124    	3960341.588       	3698739.000       
I-V-~@AV-125    	3965475.597       	3701745.000       
I-V-~@AV-126    	3965454.748       	3701725.000       
I-V-~@AV-127    	3965300.703       	3702116.000       
I-V-~@AV-128    	3965252.099       	3701629.000       
I-V-~@AV-129    	3965268.034       	3701588.000       
I-V-~@AV-13     	3959641.364       	3691920.000       
I-V-~@AV-130    	3958275.134       	3694029.000       
I-V-~@AV-131    	3957347.644       	3693425.000       
I-V-~@AV-132    	3957360.517       	3693440.000       
I-V-~@AV-133    	3957341.870       	3693464.000       
I-V-~@AV-134    	3956839.288       	3692845.000       
I-V-~@AV-135    	3960476.536       	3698685.000       
I-V-~@AV-136    	3956793.273       	3692855.000       
I-V-~@AV-137    	3956946.383       	3692677.000       
I-V-~@AV-138    	3956981.298       	3692699.000       
I-V-~@AV-139    	3957984.889       	3693184.000       
I-V-~@AV-14     	3959647.412       	3691951.000       
I-V-~@AV-140    	3965285.792       	3686271.000       
I-V-~@AV-141    	3965224.711       	3686276.000       
I-V-~@AV-142    	3964213.923       	3686991.000       
I-V-~@AV-143    	3964603.098       	3687299.000       
I-V-~@AV-144    	3964620.739       	3687295.000       
I-V-~@AV-145    	3964996.870       	3687561.000       
I-V-~@AV-146    	3960511.221       	3698690.000       
I-V-~@AV-147    	3965396.991       	3687843.000       
I-V-~@AV-148    	3964652.137       	3705302.000       
I-V-~@AV-149    	3964653.844       	3705278.000       
I-V-~@AV-15     	3960218.238       	3699263.000       
I-V-~@AV-150    	3965836.310       	3704580.000       
I-V-~@AV-151    	3965613.623       	3704582.000       
I-V-~@AV-152    	3965605.959       	3704506.000       
I-V-~@AV-153    	3965298.977       	3704634.000       
I-V-~@AV-154    	3965244.256       	3704599.000       
I-V-~@AV-155    	3964728.423       	3704877.000       
I-V-~@AV-156    	3964900.119       	3704715.000       
I-V-~@AV-157    	3960205.973       	3698421.000       
I-V-~@AV-158    	3964557.926       	3704952.000       
I-V-~@AV-159    	3964523.856       	3704931.000       
I-V-~@AV-16     	3959429.118       	3692126.000       
I-V-~@AV-160    	3964574.778       	3704914.000       
I-V-~@AV-161    	3964203.263       	3705005.000       
I-V-~@AV-162    	3964152.485       	3705012.000       
I-V-~@AV-163    	3964184.611       	3705030.000       
I-V-~@AV-164    	3964199.132       	3705139.000       
I-V-~@AV-165    	3963996.798       	3705033.000       
I-V-~@AV-166    	3963984.774       	3705041.000       
I-V-~@AV-167    	3964885.187       	3704018.000       
I-V-~@AV-168    	3960382.747       	3698189.000       
I-V-~@AV-169    	3964904.421       	3704032.000       
I-V-~@AV-17     	3959388.679       	3692117.000       
I-V-~@AV-170    	3964893.772       	3704083.000       
I-V-~@AV-171    	3965188.356       	3704027.000       
I-V-~@AV-172    	3965206.524       	3703998.000       
I-V-~@AV-173    	3966062.092       	3704028.000       
I-V-~@AV-174    	3965776.495       	3704034.000       
I-V-~@AV-175    	3965782.754       	3704018.000       
I-V-~@AV-176    	3965749.969       	3704019.000       
I-V-~@AV-177    	3965736.901       	3704016.000       
I-V-~@AV-178    	3965501.204       	3703134.000       
I-V-~@AV-179    	3960460.072       	3698095.000       
I-V-~@AV-18     	3959390.446       	3692078.000       
I-V-~@AV-180    	3965493.205       	3703131.000       
I-V-~@AV-181    	3965475.559       	3703154.000       
I-V-~@AV-182    	3965459.757       	3703138.000       
I-V-~@AV-183    	3965898.159       	3703027.000       
I-V-~@AV-184    	3965815.277       	3702983.000       
I-V-~@AV-185    	3965161.695       	3703127.000       
I-V-~@AV-186    	3965143.803       	3703250.000       
I-V-~@AV-187    	3965140.375       	3703548.000       
I-V-~@AV-188    	3964813.152       	3703292.000       
I-V-~@AV-189    	3964829.599       	3703566.000       
I-V-~@AV-19     	3959889.847       	3691685.000       
I-V-~@AV-190    	3960913.100       	3701315.000       
I-V-~@AV-191    	3964827.106       	3703061.000       
I-V-~@AV-192    	3964811.449       	3703047.000       
I-V-~@AV-193    	3964797.805       	3702939.000       
I-V-~@AV-194    	3964852.116       	3702926.000       
I-V-~@AV-195    	3965298.969       	3702604.000       
I-V-~@AV-196    	3965774.953       	3702283.000       
I-V-~@AV-197    	3965786.830       	3702294.000       
I-V-~@AV-198    	3965789.838       	3702247.000       
I-V-~@AV-199    	3962187.981       	3701968.000       
I-V-~@AV-2      	3967974.416       	3699307.000       
I-V-~@AV-20     	3959886.674       	3691653.000       
I-V-~@AV-200    	3965795.123       	3702291.000       
I-V-~@AV-201    	3966349.237       	3701872.000       
I-V-~@AV-202    	3966367.992       	3701838.000       
I-V-~@AV-204    	3967030.895       	3702049.000       
I-V-~@AV-205    	3967035.929       	3702023.000       
I-V-~@AV-206    	3966887.299       	3701402.000       
I-V-~@AV-207    	3966919.740       	3701381.000       
I-V-~@AV-208    	3968716.195       	3701980.000       
I-V-~@AV-209    	3968742.415       	3702017.000       
I-V-~@AV-21     	3959868.618       	3691236.000       
I-V-~@AV-210    	3961929.790       	3701259.000       
I-V-~@AV-211    	3968749.786       	3701982.000       
I-V-~@AV-212    	3968558.459       	3702014.000       
I-V-~@AV-213    	3968456.072       	3702058.000       
I-V-~@AV-214    	3969150.329       	3702004.000       
I-V-~@AV-215    	3968879.019       	3702175.000       
I-V-~@AV-216    	3968873.985       	3702201.000       
I-V-~@AV-217    	3970130.111       	3701890.000       
I-V-~@AV-218    	3970166.316       	3701835.000       
I-V-~@AV-219    	3969976.730       	3701176.000       
I-V-~@AV-22     	3959931.961       	3691211.000       
I-V-~@AV-220    	3969984.379       	3701129.000       
I-V-~@AV-221    	3960387.674       	3705902.000       
I-V-~@AV-222    	3961959.403       	3701209.000       
I-V-~@AV-223    	3969995.459       	3701132.000       
I-V-~@AV-224    	3969929.204       	3701168.000       
I-V-~@AV-225    	3967870.337       	3700723.000       
I-V-~@AV-226    	3967527.432       	3700980.000       
I-V-~@AV-227    	3967325.335       	3701106.000       
I-V-~@AV-228    	3967295.144       	3700859.000       
I-V-~@AV-229    	3967308.057       	3700672.000       
I-V-~@AV-23     	3960000.133       	3690858.000       
I-V-~@AV-230    	3967149.180       	3701269.000       
I-V-~@AV-231    	3967147.184       	3701236.000       
I-V-~@AV-232    	3967125.696       	3701233.000       
I-V-~@AV-233    	3961012.809       	3701052.000       
I-V-~@AV-234    	3967116.036       	3701240.000       
I-V-~@AV-235    	3967126.961       	3701249.000       
I-V-~@AV-236    	3967108.980       	3701261.000       
I-V-~@AV-237    	3967094.952       	3701239.000       
I-V-~@AV-238    	3966587.129       	3700917.000       
I-V-~@AV-239    	3966587.245       	3700887.000       
I-V-~@AV-24     	3960042.421       	3690855.000       
I-V-~@AV-240    	3966559.516       	3700905.000       
I-V-~@AV-241    	3966563.030       	3700880.000       
I-V-~@AV-242    	3966370.441       	3701051.000       
I-V-~@AV-243    	3966342.632       	3701009.000       
I-V-~@AV-244    	3960873.929       	3699924.000       
I-V-~@AV-245    	3966363.756       	3699993.000       
I-V-~@AV-246    	3966858.020       	3699871.000       
I-V-~@AV-247    	3966596.764       	3699775.000       
I-V-~@AV-248    	3967408.275       	3700146.000       
I-V-~@AV-249    	3967431.418       	3700137.000       
I-V-~@AV-25     	3959869.859       	3691075.000       
I-V-~@AV-250    	3967424.536       	3700140.000       
I-V-~@AV-251    	3967428.251       	3700124.000       
I-V-~@AV-252    	3968050.302       	3699950.000       
I-V-~@AV-253    	3968126.031       	3699629.000       
I-V-~@AV-254    	3960921.410       	3699905.000       
I-V-~@AV-255    	3967867.485       	3699561.000       
I-V-~@AV-256    	3967813.666       	3699548.000       
I-V-~@AV-257    	3967571.888       	3699480.000       
I-V-~@AV-258    	3967581.565       	3699442.000       
I-V-~@AV-259    	3967528.137       	3699440.000       
I-V-~@AV-26     	3960460.007       	3699319.000       
I-V-~@AV-260    	3967686.475       	3699222.000       
I-V-~@AV-261    	3967767.898       	3699258.000       
I-V-~@AV-262    	3967804.630       	3699266.000       
I-V-~@AV-263    	3967659.091       	3699212.000       
I-V-~@AV-264    	3961513.874       	3699626.000       
I-V-~@AV-265    	3966474.601       	3699272.000       
I-V-~@AV-266    	3966502.963       	3699262.000       
I-V-~@AV-267    	3966512.198       	3699291.000       
I-V-~@AV-268    	3966338.248       	3699669.000       
I-V-~@AV-269    	3966310.997       	3699680.000       
I-V-~@AV-27     	3963559.235       	3692570.000       
I-V-~@AV-270    	3970820.825       	3701476.000       
I-V-~@AV-271    	3970908.198       	3701506.000       
I-V-~@AV-272    	3970962.338       	3701148.000       
I-V-~@AV-273    	3970654.361       	3700702.000       
I-V-~@AV-274    	3970371.805       	3700898.000       
I-V-~@AV-275    	3961849.421       	3700424.000       
I-V-~@AV-276    	3966486.775       	3705944.000       
I-V-~@AV-277    	3966731.685       	3705580.000       
I-V-~@AV-278    	3966756.012       	3705541.000       
I-V-~@AV-279    	3966724.375       	3705549.000       
I-V-~@AV-28     	3964005.460       	3692602.000       
I-V-~@AV-280    	3968764.962       	3705232.000       
I-V-~@AV-281    	3968830.509       	3704957.000       
I-V-~@AV-282    	3968812.790       	3704912.000       
I-V-~@AV-283    	3968439.677       	3705165.000       
I-V-~@AV-284    	3968525.452       	3704714.000       
I-V-~@AV-285    	3968535.975       	3704705.000       
I-V-~@AV-286    	3961853.443       	3700455.000       
I-V-~@AV-287    	3967064.472       	3705084.000       
I-V-~@AV-288    	3967046.370       	3705082.000       
I-V-~@AV-289    	3967029.286       	3705086.000       
I-V-~@AV-29     	3962660.391       	3694574.000       
I-V-~@AV-290    	3967301.682       	3704646.000       
I-V-~@AV-291    	3966376.781       	3705335.000       
I-V-~@AV-292    	3966368.700       	3705308.000       
I-V-~@AV-293    	3966563.190       	3705089.000       
I-V-~@AV-294    	3966551.269       	3705023.000       
I-V-~@AV-295    	3966533.294       	3705052.000       
I-V-~@AV-296    	3966642.350       	3704841.000       
I-V-~@AV-297    	3961864.059       	3700404.000       
I-V-~@AV-298    	3966644.402       	3704870.000       
I-V-~@AV-299    	3966673.558       	3704861.000       
I-V-~@AV-3      	3967670.610       	3700385.000       
I-V-~@AV-30     	3962462.377       	3694022.000       
I-V-~@AV-300    	3966498.114       	3704747.000       
I-V-~@AV-301    	3966500.862       	3704719.000       
I-V-~@AV-302    	3966589.245       	3704570.000       
I-V-~@AV-303    	3966574.877       	3704537.000       
I-V-~@AV-304    	3966494.115       	3704210.000       
I-V-~@AV-305    	3966490.710       	3704184.000       
I-V-~@AV-306    	3966371.735       	3704109.000       
I-V-~@AV-307    	3966564.134       	3704183.000       
I-V-~@AV-308    	3961997.348       	3699594.000       
I-V-~@AV-309    	3966587.143       	3704171.000       
I-V-~@AV-31     	3962483.565       	3694054.000       
I-V-~@AV-310    	3966932.531       	3704419.000       
I-V-~@AV-311    	3967637.563       	3704131.000       
I-V-~@AV-312    	3967648.506       	3704154.000       
I-V-~@AV-313    	3967675.018       	3704116.000       
I-V-~@AV-314    	3967686.099       	3704100.000       
I-V-~@AV-315    	3967724.368       	3704066.000       
I-V-~@AV-316    	3968192.364       	3704501.000       
I-V-~@AV-317    	3968001.598       	3704472.000       
I-V-~@AV-318    	3968005.610       	3704443.000       
I-V-~@AV-319    	3962015.290       	3699602.000       
I-V-~@AV-32     	3962490.064       	3693992.000       
I-V-~@AV-320    	3968032.480       	3704422.000       
I-V-~@AV-321    	3968546.665       	3704495.000       
I-V-~@AV-322    	3968572.501       	3704501.000       
I-V-~@AV-323    	3968892.846       	3704575.000       
I-V-~@AV-324    	3968767.451       	3703545.000       
I-V-~@AV-325    	3968233.289       	3703416.000       
I-V-~@AV-326    	3968229.188       	3703447.000       
I-V-~@AV-327    	3968261.307       	3703425.000       
I-V-~@AV-328    	3968044.899       	3703570.000       
I-V-~@AV-329    	3968086.981       	3703163.000       
I-V-~@AV-33     	3963356.940       	3695507.000       
I-V-~@AV-330    	3960381.175       	3705830.000       
I-V-~@AV-331    	3962045.819       	3699579.000       
I-V-~@AV-332    	3968064.632       	3703156.000       
I-V-~@AV-333    	3968300.201       	3703026.000       
I-V-~@AV-334    	3968286.081       	3703028.000       
I-V-~@AV-335    	3968290.496       	3703011.000       
I-V-~@AV-336    	3968304.848       	3703015.000       
I-V-~@AV-337    	3967752.316       	3703128.000       
I-V-~@AV-338    	3966715.118       	3703545.000       
I-V-~@AV-339    	3966724.396       	3703539.000       
I-V-~@AV-34     	3963354.910       	3695539.000       
I-V-~@AV-340    	3966373.837       	3702795.000       
I-V-~@AV-341    	3966230.097       	3702227.000       
I-V-~@AV-342    	3961766.207       	3699510.000       
I-V-~@AV-343    	3966552.551       	3702164.000       
I-V-~@AV-344    	3967425.572       	3702695.000       
I-V-~@AV-345    	3969026.831       	3702499.000       
I-V-~@AV-346    	3969055.965       	3702514.000       
I-V-~@AV-347    	3969095.324       	3702451.000       
I-V-~@AV-348    	3969024.302       	3702427.000       
I-V-~@AV-349    	3971021.470       	3706063.000       
I-V-~@AV-35     	3964154.507       	3695618.000       
I-V-~@AV-350    	3971013.572       	3706138.000       
I-V-~@AV-351    	3971458.852       	3705488.000       
I-V-~@AV-352    	3971518.596       	3705455.000       
I-V-~@AV-353    	3961317.095       	3698724.000       
I-V-~@AV-354    	3971790.451       	3706369.000       
I-V-~@AV-355    	3972608.799       	3704796.000       
I-V-~@AV-356    	3972635.956       	3704957.000       
I-V-~@AV-357    	3972616.825       	3704762.000       
I-V-~@AV-358    	3972551.266       	3704677.000       
I-V-~@AV-359    	3972226.421       	3704878.000       
I-V-~@AV-36     	3962987.063       	3695107.000       
I-V-~@AV-360    	3972147.094       	3704917.000       
I-V-~@AV-361    	3972021.217       	3704933.000       
I-V-~@AV-362    	3972024.401       	3704962.000       
I-V-~@AV-363    	3971578.550       	3704725.000       
I-V-~@AV-364    	3961344.913       	3698728.000       
I-V-~@AV-365    	3971621.210       	3704719.000       
I-V-~@AV-366    	3970347.636       	3703711.000       
I-V-~@AV-367    	3971358.131       	3704453.000       
I-V-~@AV-368    	3971855.799       	3704522.000       
I-V-~@AV-369    	3971898.848       	3704512.000       
I-V-~@AV-37     	3960173.870       	3699333.000       
I-V-~@AV-370    	3972389.649       	3704156.000       
I-V-~@AV-371    	3972417.000       	3704182.000       
I-V-~@AV-372    	3972392.780       	3704133.000       
I-V-~@AV-373    	3972143.246       	3703958.000       
I-V-~@AV-374    	3972215.317       	3703928.000       
I-V-~@AV-375    	3961589.072       	3698635.000       
I-V-~@AV-376    	3972662.304       	3704475.000       
I-V-~@AV-377    	3972381.353       	3707079.000       
I-V-~@AV-378    	3972071.356       	3706696.000       
I-V-~@AV-379    	3972016.640       	3706616.000       
I-V-~@AV-38     	3962900.341       	3695390.000       
I-V-~@AV-380    	3972014.390       	3706649.000       
I-V-~@AV-381    	3971333.827       	3706828.000       
I-V-~@AV-382    	3970997.756       	3706288.000       
I-V-~@AV-383    	3971074.835       	3706308.000       
I-V-~@AV-384    	3971081.541       	3706346.000       
I-V-~@AV-385    	3966460.202       	3707777.000       
I-V-~@AV-386    	3961871.013       	3698555.000       
I-V-~@AV-387    	3966352.392       	3708079.000       
I-V-~@AV-388    	3967302.320       	3708079.000       
I-V-~@AV-389    	3968663.575       	3708210.000       
I-V-~@AV-39     	3963113.979       	3695470.000       
I-V-~@AV-390    	3968744.103       	3708327.000       
I-V-~@AV-391    	3969005.618       	3708281.000       
I-V-~@AV-392    	3969017.392       	3708297.000       
I-V-~@AV-393    	3969025.811       	3708255.000       
I-V-~@AV-394    	3968893.458       	3708909.000       
I-V-~@AV-395    	3968873.901       	3708885.000       
I-V-~@AV-396    	3968903.019       	3708864.000       
I-V-~@AV-397    	3961907.261       	3698529.000       
I-V-~@AV-398    	3966269.374       	3706603.000       
I-V-~@AV-399    	3966091.746       	3707579.000       
I-V-~@AV-4      	3960221.302       	3704147.000       
I-V-~@AV-40     	3962969.386       	3696328.000       
I-V-~@AV-400    	3966069.746       	3707605.000       
I-V-~@AV-401    	3966068.476       	3707552.000       
I-V-~@AV-402    	3965952.803       	3708021.000       
I-V-~@AV-403    	3965944.948       	3708217.000       
I-V-~@AV-404    	3966271.116       	3708306.000       
I-V-~@AV-405    	3972039.405       	3706603.000       
I-V-~@AV-406    	3972039.089       	3706625.000       
I-V-~@AV-407    	3972037.788       	3706678.000       
I-V-~@AV-408    	3962105.649       	3698343.000       
I-V-~@AV-409    	3966047.464       	3707639.000       
I-V-~@AV-41     	3962929.302       	3696322.000       
I-V-~@AV-410    	3966042.068       	3707579.000       
I-V-~@AV-411    	3977750.309       	3679386.000       
I-V-~@AV-412    	3960278.744       	3695426.000       
I-V-~@AV-413    	3959095.544       	3695121.000       
I-V-~@AV-414    	3960527.627       	3705901.000       
I-V-~@AV-415    	3959120.985       	3695164.000       
I-V-~@AV-416    	3959085.178       	3695158.000       
I-V-~@AV-417    	3959149.911       	3695172.000       
I-V-~@AV-418    	3959161.783       	3694954.000       
I-V-~@AV-419    	3958712.257       	3694592.000       
I-V-~@AV-42     	3962953.835       	3696278.000       
I-V-~@AV-420    	3958850.881       	3695154.000       
I-V-~@AV-421    	3958869.871       	3695174.000       
I-V-~@AV-422    	3958811.621       	3695257.000       
I-V-~@AV-423    	3958450.920       	3695106.000       
I-V-~@AV-424    	3958432.658       	3695135.000       
I-V-~@AV-425    	3960346.424       	3704684.000       
I-V-~@AV-426    	3961294.785       	3697945.000       
I-V-~@AV-427    	3961720.035       	3696985.000       
I-V-~@AV-428    	3961761.618       	3697018.000       
I-V-~@AV-429    	3960901.274       	3696420.000       
I-V-~@AV-43     	3964155.404       	3696312.000       
I-V-~@AV-430    	3961061.925       	3696553.000       
I-V-~@AV-431    	3958535.503       	3696435.000       
I-V-~@AV-432    	3958553.632       	3696260.000       
I-V-~@AV-433    	3958503.044       	3695689.000       
I-V-~@AV-434    	3959366.560       	3696378.000       
I-V-~@AV-435    	3959950.977       	3695972.000       
I-V-~@AV-436    	3960377.805       	3704654.000       
I-V-~@AV-437    	3960465.328       	3695952.000       
I-V-~@AV-438    	3960496.573       	3695948.000       
I-V-~@AV-439    	3960441.807       	3696015.000       
I-V-~@AV-44     	3964173.498       	3697153.000       
I-V-~@AV-440    	3960383.211       	3695993.000       
I-V-~@AV-441    	3960946.326       	3696269.000       
I-V-~@AV-442    	3960957.309       	3696312.000       
I-V-~@AV-443    	3960722.445       	3695148.000       
I-V-~@AV-444    	3960285.226       	3694191.000       
I-V-~@AV-445    	3960603.075       	3694151.000       
I-V-~@AV-446    	3960595.087       	3694004.000       
I-V-~@AV-447    	3960341.890       	3704628.000       
I-V-~@AV-448    	3961599.840       	3694161.000       
I-V-~@AV-449    	3961657.127       	3694174.000       
I-V-~@AV-45     	3964157.576       	3696898.000       
I-V-~@AV-450    	3962385.667       	3694562.000       
I-V-~@AV-451    	3961835.947       	3693914.000       
I-V-~@AV-452    	3962658.522       	3694917.000       
I-V-~@AV-453    	3962643.434       	3694898.000       
I-V-~@AV-454    	3961567.321       	3693470.000       
I-V-~@AV-455    	3961533.794       	3693459.000       
I-V-~@AV-456    	3960399.924       	3693475.000       
I-V-~@AV-457    	3960363.750       	3693399.000       
I-V-~@AV-458    	3960009.914       	3704278.000       
I-V-~@AV-459    	3960054.103       	3693404.000       
I-V-~@AV-46     	3963730.082       	3696849.000       
I-V-~@AV-460    	3959754.866       	3693370.000       
I-V-~@AV-461    	3959654.296       	3693346.000       
I-V-~@AV-462    	3959439.639       	3693504.000       
I-V-~@AV-463    	3959422.007       	3693409.000       
I-V-~@AV-464    	3959388.813       	3693394.000       
I-V-~@AV-465    	3959413.614       	3693359.000       
I-V-~@AV-466    	3959190.078       	3692348.000       
I-V-~@AV-467    	3959652.821       	3692759.000       
I-V-~@AV-468    	3959740.226       	3692557.000       
I-V-~@AV-47     	3962868.804       	3696514.000       
I-V-~@AV-48     	3960285.521       	3699623.000       
I-V-~@AV-49     	3962778.181       	3697122.000       
I-V-~@AV-5      	3959640.588       	3692576.000       
I-V-~@AV-50     	3962756.165       	3697076.000       
I-V-~@AV-51     	3962615.969       	3697743.000       
I-V-~@AV-52     	3962615.030       	3697758.000       
I-V-~@AV-53     	3962621.522       	3697729.000       
I-V-~@AV-54     	3962629.500       	3697735.000       
I-V-~@AV-55     	3962622.028       	3697743.000       
I-V-~@AV-56     	3962639.832       	3697734.000       
I-V-~@AV-57     	3963024.493       	3698020.000       
I-V-~@AV-58     	3962991.957       	3698024.000       
I-V-~@AV-59     	3960274.292       	3699669.000       
I-V-~@AV-6      	3960171.489       	3692855.000       
I-V-~@AV-60     	3962986.286       	3698008.000       
I-V-~@AV-61     	3962960.280       	3697988.000       
I-V-~@AV-62     	3962947.688       	3698005.000       
I-V-~@AV-63     	3962970.110       	3698007.000       
I-V-~@AV-64     	3963478.658       	3697369.000       
I-V-~@AV-65     	3963340.181       	3697515.000       
I-V-~@AV-66     	3963345.789       	3697547.000       
I-V-~@AV-67     	3963353.890       	3697628.000       
I-V-~@AV-68     	3963377.032       	3697711.000       
I-V-~@AV-69     	3963405.393       	3697698.000       
I-V-~@AV-7      	3960451.929       	3692659.000       
I-V-~@AV-70     	3960450.880       	3699607.000       
I-V-~@AV-71     	3963399.213       	3697674.000       
I-V-~@AV-72     	3963700.491       	3697891.000       
I-V-~@AV-73     	3963318.015       	3697889.000       
I-V-~@AV-74     	3964176.174       	3697440.000       
I-V-~@AV-75     	3963982.725       	3697446.000       
I-V-~@AV-76     	3963974.700       	3697691.000       
I-V-~@AV-77     	3964047.055       	3697617.000       
I-V-~@AV-78     	3964079.797       	3697676.000       
I-V-~@AV-79     	3964350.328       	3697970.000       
I-V-~@AV-8      	3960470.837       	3692689.000       
I-V-~@AV-80     	3964595.141       	3697861.000       
I-V-~@AV-81     	3960365.180       	3700143.000       
I-V-~@AV-82     	3963145.135       	3698143.000       
I-V-~@AV-83     	3963099.564       	3698100.000       
I-V-~@AV-84     	3963088.045       	3698117.000       
I-V-~@AV-85     	3964122.434       	3699586.000       
I-V-~@AV-86     	3964085.715       	3699605.000       
I-V-~@AV-87     	3964112.088       	3699571.000       
I-V-~@AV-88     	3964428.366       	3699141.000       
I-V-~@AV-89     	3964459.368       	3699164.000       
I-V-~@AV-9      	3960476.729       	3692636.000       
I-V-~@AV-90     	3964432.476       	3699167.000       
I-V-~@AV-91     	3964942.986       	3699573.000       
I-V-~@AV-92     	3960207.444       	3700195.000       
I-V-~@AV-93     	3964983.130       	3699572.000       
I-V-~@AV-94     	3966098.828       	3700407.000       
I-V-~@AV-95     	3966071.166       	3700418.000       
I-V-~@AV-96     	3965979.757       	3700374.000       
I-V-~@AV-97     	3964620.171       	3700363.000       
I-V-~@AV-98     	3964619.979       	3699960.000       
I-V-~@AV-99     	3964449.799       	3700256.000       
R1              	3971551.857       	3700306.000       
T-1             	3960657.692       	3705934.000       
T-2             	3967987.240       	3699256.000       
T-3             	3963551.596       	3698002.000       

[VERTICES]
;Link            	X-Coord           	Y-Coord
P-1             	3958331.904       	3704539.761       
P-1             	3958369.500       	3704291.962       
P-1             	3958434.309       	3704172.543       
P-1             	3958514.270       	3703970.201       
P-1             	3958509.262       	3703820.313       
P-1             	3958404.353       	3703303.208       
P-1             	3958359.392       	3703055.904       
P-1             	3958318.002       	3702903.005       
P-10            	3964961.201       	3690510.367       
P-10            	3965067.913       	3690339.119       
P-10            	3965223.579       	3690094.372       
P-10            	3965373.782       	3689839.557       
P-10            	3965440.451       	3689718.143       
P-10            	3965875.795       	3688983.493       
P-100           	3962629.019       	3704234.870       
P-100           	3963447.039       	3703818.684       
P-100           	3964422.924       	3703215.932       
P-1002          	3960300.778       	3700093.781       
P-1003          	3965209.923       	3699666.416       
P-1003          	3965378.809       	3699795.359       
P-1003          	3965408.337       	3699821.165       
P-1004          	3966575.267       	3700070.401       
P-1007          	3964845.813       	3700451.487       
P-1007          	3965034.298       	3700568.948       
P-1008          	3964636.598       	3699891.625       
P-1008          	3964318.894       	3699641.660       
P-1011          	3964122.977       	3699861.721       
P-1012          	3960753.747       	3700122.296       
P-1012          	3960727.975       	3700130.419       
P-1012          	3960592.743       	3700189.726       
P-1013          	3964186.970       	3700092.567       
P-1013          	3964297.359       	3700136.862       
P-1013          	3964436.679       	3700196.676       
P-1013          	3964463.389       	3700205.197       
P-1015          	3963126.472       	3700310.758       
P-1016          	3963182.243       	3700078.928       
P-1017          	3962726.094       	3700570.643       
P-1019          	3965290.180       	3701321.697       
P-1019          	3965333.461       	3701410.271       
P-1019          	3965377.546       	3701495.851       
P-1019          	3965426.184       	3701533.774       
P-1019          	3965507.182       	3701564.477       
P-1020          	3965260.819       	3700711.784       
P-1020          	3965263.813       	3700713.671       
P-1021          	3965404.999       	3700427.884       
P-1025          	3965291.484       	3701227.706       
P-1026          	3965825.109       	3701072.187       
P-1026          	3966087.768       	3701242.262       
P-1026          	3966111.504       	3701259.727       
P-1026          	3966132.232       	3701276.578       
P-1028          	3966124.010       	3700590.203       
P-1028          	3966173.856       	3700604.805       
P-1028          	3966221.233       	3700636.057       
P-1028          	3966258.560       	3700684.170       
P-1028          	3966325.525       	3700772.010       
P-1028          	3966348.360       	3700809.136       
P-1028          	3966493.416       	3701015.198       
P-103           	3966944.813       	3710383.919       
P-1031          	3966154.824       	3702010.610       
P-1031          	3966504.817       	3701941.645       
P-1032          	3965911.617       	3701796.782       
P-1033          	3965686.625       	3701807.792       
P-1036          	3965630.260       	3701673.157       
P-1036          	3965609.723       	3701621.910       
P-1036          	3965579.031       	3701590.203       
P-1038          	3965436.357       	3701672.229       
P-1038          	3965441.169       	3701667.323       
P-104           	3964337.733       	3697216.766       
P-1041          	3957560.036       	3693439.879       
P-1043          	3957522.113       	3693517.843       
P-1045          	3960656.821       	3698738.358       
P-1045          	3960646.824       	3698698.229       
P-1045          	3960616.097       	3698288.712       
P-1045          	3960605.230       	3698279.783       
P-1048          	3957198.404       	3692780.457       
P-1048          	3957375.710       	3692892.046       
P-1048          	3957396.273       	3692856.022       
P-1051          	3965385.097       	3686321.554       
P-1051          	3965090.429       	3686140.752       
P-1051          	3965006.528       	3686076.984       
P-1052          	3964458.778       	3686962.978       
P-1053          	3964644.407       	3687252.472       
P-1053          	3964393.181       	3687070.526       
P-1057          	3965704.837       	3687699.588       
P-1060          	3966005.654       	3704495.413       
P-1060          	3965991.070       	3704385.846       
P-1060          	3965970.708       	3704190.349       
P-1061          	3965797.499       	3704595.609       
P-1062          	3965787.379       	3704495.973       
P-1062          	3965755.076       	3704263.534       
P-1062          	3965729.409       	3704096.575       
P-1062          	3965727.711       	3704085.580       
P-1062          	3965723.491       	3704058.127       
P-1062          	3965678.789       	3703774.578       
P-1062          	3965676.285       	3703752.179       
P-1062          	3965667.048       	3703458.531       
P-1062          	3965667.027       	3703445.800       
P-1065          	3964982.224       	3705126.035       
P-1065          	3964998.126       	3705171.598       
P-1065          	3965033.212       	3705262.150       
P-1065          	3965059.755       	3705274.161       
P-1065          	3965154.812       	3705244.166       
P-1065          	3965175.274       	3705237.709       
P-1065          	3965227.273       	3705218.047       
P-1065          	3965231.143       	3705199.401       
P-1065          	3965156.928       	3704979.689       
P-1066          	3965084.949       	3704766.597       
P-1069          	3964730.022       	3704989.687       
P-1070          	3964863.015       	3704942.923       
P-1071          	3964467.241       	3705057.777       
P-1071          	3964531.282       	3705042.236       
P-1071          	3964608.288       	3705023.548       
P-1075          	3964207.787       	3705090.097       
P-1075          	3964295.381       	3705081.868       
P-1076          	3964171.825       	3705099.849       
P-1077          	3965074.492       	3704084.811       
P-108           	3965478.902       	3702163.632       
P-108           	3965478.751       	3702160.169       
P-108           	3965476.976       	3702119.406       
P-108           	3965461.113       	3701951.205       
P-1080          	3965078.513       	3704116.311       
P-1080          	3965076.230       	3704099.762       
P-1082          	3965359.338       	3703810.193       
P-1082          	3965318.003       	3703625.849       
P-1083          	3966254.626       	3704126.153       
P-1084          	3965964.405       	3704090.080       
P-1085          	3966023.915       	3704082.008       
P-1085          	3966123.887       	3704082.639       
P-1085          	3966143.199       	3704069.718       
P-1088          	3965705.020       	3703195.234       
P-1088          	3965804.957       	3703154.685       
P-1088          	3965952.972       	3703095.245       
P-109           	3966169.881       	3701316.864       
P-1092          	3965350.986       	3703176.833       
P-1092          	3965328.716       	3703175.012       
P-1092          	3965158.764       	3703155.666       
P-1092          	3965053.452       	3703145.668       
P-1092          	3965027.697       	3703147.752       
P-1096          	3965292.614       	3703314.798       
P-1096          	3965293.682       	3703352.423       
P-1096          	3965278.374       	3703352.583       
P-1098          	3964987.516       	3703355.627       
P-1099          	3965027.785       	3703823.710       
P-1099          	3965037.467       	3703838.767       
P-1099          	3965046.308       	3703852.493       
P-1099          	3965069.087       	3704037.940       
P-1100          	3961117.620       	3701304.504       
P-1100          	3961194.569       	3701278.066       
P-1101          	3965142.534       	3703132.152       
P-1101          	3965152.268       	3703146.439       
P-1101          	3965319.220       	3703163.050       
P-1102          	3965000.139       	3703104.121       
P-1102          	3964991.245       	3703036.697       
P-1102          	3964982.351       	3703021.605       
P-1105          	3965516.124       	3702649.398       
P-1106          	3965973.526       	3702340.062       
P-1107          	3965973.526       	3702340.062       
P-1107          	3965943.167       	3702107.326       
P-1108          	3965947.422       	3702051.492       
P-1109          	3962362.332       	3701980.776       
P-1114          	3967313.904       	3702253.152       
P-1119          	3968994.588       	3702170.548       
P-112           	3971412.527       	3702680.895       
P-1120          	3962118.863       	3701304.749       
P-1121          	3969184.274       	3701880.548       
P-1121          	3969370.840       	3701756.321       
P-1123          	3968702.813       	3702095.612       
P-1124          	3969336.594       	3702062.119       
P-1124          	3969454.004       	3701993.102       
P-1124          	3969558.931       	3701944.919       
P-1124          	3969672.367       	3701917.939       
P-1124          	3969803.223       	3701910.078       
P-1124          	3970178.442       	3701898.925       
P-1124          	3970297.025       	3701896.404       
P-1124          	3970303.503       	3701837.786       
P-1124          	3970316.109       	3701742.699       
P-1124          	3970308.668       	3701723.755       
P-1124          	3970286.800       	3701705.687       
P-1124          	3970245.919       	3701698.368       
P-1124          	3970122.276       	3701670.898       
P-1124          	3970012.849       	3701654.738       
P-1124          	3969899.921       	3701649.608       
P-1124          	3969729.286       	3701651.289       
P-1125          	3969195.425       	3702158.450       
P-1125          	3969343.019       	3702074.410       
P-1126          	3969078.069       	3702286.844       
P-1127          	3970325.657       	3701921.676       
P-1128          	3970457.926       	3701905.228       
P-1128          	3970652.495       	3701943.011       
P-1128          	3970875.479       	3702008.947       
P-1130          	3970691.398       	3700823.640       
P-1130          	3970967.800       	3700628.354       
P-1130          	3971059.193       	3700607.082       
P-1132          	3962147.760       	3701245.971       
P-1132          	3962127.792       	3701070.979       
P-1132          	3962096.995       	3701047.956       
P-1132          	3962056.201       	3700998.792       
P-1132          	3962034.333       	3700958.594       
P-1132          	3962034.999       	3700917.011       
P-1132          	3962007.028       	3700835.040       
P-1132          	3962006.128       	3700772.744       
P-1132          	3962014.637       	3700690.420       
P-1132          	3962022.550       	3700613.629       
P-1133          	3970212.811       	3701176.081       
P-1133          	3970377.791       	3701055.659       
P-1133          	3970400.416       	3701040.433       
P-1133          	3970534.174       	3700945.637       
P-1136          	3967694.063       	3701058.737       
P-1138          	3967489.406       	3700773.777       
P-1139          	3967537.746       	3700531.568       
P-1139          	3967564.761       	3700417.922       
P-1139          	3967610.738       	3700215.352       
P-114           	3963307.499       	3696281.334       
P-114           	3963295.503       	3696321.925       
P-114           	3963453.883       	3696503.363       
P-114           	3963574.304       	3696534.116       
P-1141          	3967497.793       	3701188.214       
P-1143          	3961215.123       	3700809.441       
P-1143          	3961141.204       	3700597.399       
P-1147          	3967079.766       	3701435.798       
P-1147          	3967001.977       	3701486.747       
P-1147          	3966895.422       	3701563.047       
P-1147          	3966883.217       	3701596.068       
P-1147          	3966871.103       	3701619.214       
P-1147          	3966532.039       	3701845.858       
P-1147          	3966590.131       	3701932.594       
P-1147          	3966579.258       	3701934.852       
P-1147          	3966549.737       	3701940.942       
P-1147          	3966175.781       	3702018.086       
P-1147          	3966154.824       	3702010.610       
P-1147          	3966142.813       	3702006.338       
P-1149          	3966808.826       	3700930.335       
P-115           	3964508.000       	3705178.251       
P-115           	3964504.411       	3705145.143       
P-1152          	3966570.085       	3701133.507       
P-1152          	3966732.461       	3701374.199       
P-1154          	3960812.452       	3700052.202       
P-1155          	3966389.084       	3699952.991       
P-1156          	3967108.251       	3699800.022       
P-1156          	3967237.079       	3699524.902       
P-1157          	3966826.790       	3699868.094       
P-1157          	3966997.390       	3699940.368       
P-1158          	3967610.738       	3700215.352       
P-116           	3962838.556       	3697815.062       
P-116           	3962978.884       	3697920.374       
P-1161          	3967664.418       	3699978.728       
P-1161          	3967709.940       	3699774.250       
P-1161          	3967704.320       	3699754.903       
P-1162          	3968252.323       	3699970.868       
P-1162          	3968323.955       	3699694.909       
P-1166          	3968042.024       	3699620.739       
P-1168          	3967816.801       	3699319.971       
P-1168          	3967824.146       	3699290.532       
P-117           	3963327.351       	3696181.562       
P-1173          	3967962.688       	3698929.443       
P-1173          	3968093.948       	3698457.578       
P-1173          	3968168.953       	3698185.693       
P-1173          	3968481.440       	3697229.446       
P-1173          	3968593.947       	3696870.073       
P-1173          	3968643.951       	3696704.462       
P-1173          	3968550.194       	3696679.443       
P-1173          	3968568.946       	3696579.454       
P-1173          	3968562.695       	3696410.692       
P-1173          	3968515.826       	3696245.082       
P-1173          	3968459.572       	3696079.454       
P-1173          	3968397.067       	3695870.073       
P-1173          	3968378.316       	3695710.695       
P-1173          	3968403.318       	3695535.701       
P-1173          	3968475.189       	3695326.320       
P-1173          	3968581.447       	3695132.574       
P-1173          	3968850.198       	3694651.325       
P-1174          	3961739.479       	3699811.898       
P-1174          	3961782.003       	3699939.307       
P-1174          	3961723.632       	3700156.422       
P-1174          	3961727.118       	3700287.546       
P-1175          	3966604.208       	3699319.351       
P-1175          	3966548.041       	3699311.822       
P-1178          	3966764.110       	3699823.133       
P-1181          	3971086.243       	3701576.791       
P-1183          	3971128.100       	3701160.486       
P-1184          	3970647.995       	3701084.127       
P-1184          	3970794.574       	3701294.909       
P-1184          	3970873.256       	3701407.539       
P-1184          	3970928.442       	3701473.493       
P-1184          	3970956.018       	3701493.616       
P-1186          	3966664.716       	3706001.260       
P-1186          	3966610.546       	3706081.255       
P-1188          	3967027.609       	3705471.584       
P-1190          	3968951.360       	3705305.746       
P-1190          	3968646.401       	3705233.160       
P-1191          	3969001.539       	3705091.708       
P-12            	3960711.517       	3698887.178       
P-1203          	3966735.029       	3705188.423       
P-1203          	3966748.400       	3705196.657       
P-1207          	3962054.256       	3700459.713       
P-1207          	3962076.196       	3700329.760       
P-1207          	3962080.380       	3700303.541       
P-1207          	3962136.966       	3700016.844       
P-1209          	3966896.578       	3704946.687       
P-1209          	3967008.555       	3705019.431       
P-1209          	3967072.142       	3705052.732       
P-1210          	3966804.027       	3704886.679       
P-1211          	3966676.779       	3704803.872       
P-1212          	3966751.716       	3704678.091       
P-1213          	3966788.692       	3704616.027       
P-1214          	3966570.329       	3704475.453       
P-1217          	3966763.603       	3704253.659       
P-1218          	3962149.262       	3699855.914       
P-1218          	3962072.501       	3700249.020       
P-1219          	3966883.114       	3704071.346       
P-1219          	3966898.836       	3704044.926       
P-1219          	3966806.690       	3703999.982       
P-1219          	3966892.638       	3703815.656       
P-1219          	3966908.361       	3703697.370       
P-1225          	3968040.005       	3704180.562       
P-1228          	3968180.543       	3704533.510       
P-1233          	3969065.804       	3704634.393       
P-1233          	3968770.273       	3704566.181       
P-1234          	3969012.131       	3703597.346       
P-1234          	3969127.581       	3703589.327       
P-1234          	3969218.518       	3703603.964       
P-1234          	3969305.674       	3703648.207       
P-1234          	3969359.518       	3703684.488       
P-1234          	3969457.261       	3703751.138       
P-1234          	3969618.231       	3703850.392       
P-1234          	3969774.211       	3703979.186       
P-1234          	3969850.075       	3704050.739       
P-1234          	3969964.075       	3704166.040       
P-1236          	3968401.515       	3703521.623       
P-1236          	3968277.594       	3703604.445       
P-1238          	3968224.979       	3703639.611       
P-1238          	3968143.216       	3703737.166       
P-1239          	3968295.748       	3703217.181       
P-124           	3965283.807       	3702781.007       
P-124           	3965516.457       	3702636.827       
P-124           	3965575.630       	3702599.254       
P-124           	3965734.802       	3702496.884       
P-124           	3965780.201       	3702467.260       
P-124           	3965935.336       	3702365.190       
P-1246          	3968518.111       	3703062.348       
P-1246          	3968562.958       	3703032.583       
P-1246          	3968785.768       	3702873.188       
P-1246          	3968793.443       	3702867.125       
P-1246          	3968894.879       	3702786.995       
P-1246          	3968937.039       	3702752.206       
P-1249          	3966941.749       	3703616.097       
P-1249          	3966941.381       	3703677.358       
P-1249          	3967169.969       	3703827.474       
P-1249          	3967310.772       	3703921.892       
P-1249          	3967600.758       	3704090.517       
P-1249          	3967753.850       	3704172.631       
P-1249          	3967800.160       	3704188.073       
P-1252          	3961926.833       	3699559.511       
P-1252          	3961804.310       	3699500.018       
P-1252          	3961800.318       	3699484.418       
P-1252          	3961529.589       	3699464.547       
P-1254          	3967432.893       	3702880.758       
P-1255          	3969230.407       	3702552.017       
P-1257          	3969349.025       	3702468.695       
P-1257          	3969537.658       	3702377.968       
P-1257          	3969619.103       	3702346.526       
P-1257          	3969717.433       	3702308.565       
P-1257          	3969766.999       	3702290.727       
P-1257          	3969907.975       	3702247.531       
P-1257          	3970076.194       	3702217.505       
P-1257          	3970119.479       	3702206.324       
P-1257          	3970250.121       	3702172.579       
P-1257          	3970275.017       	3702151.149       
P-1257          	3970301.367       	3702038.378       
P-1258          	3969220.322       	3702501.208       
P-1258          	3969227.635       	3702511.703       
P-1259          	3971214.491       	3706087.190       
P-1259          	3971418.769       	3706088.710       
P-1259          	3971501.556       	3706089.326       
P-126           	3971497.004       	3701290.147       
P-126           	3971608.891       	3701205.561       
P-126           	3971618.266       	3701198.474       
P-126           	3971718.203       	3700977.030       
P-126           	3971714.935       	3700933.321       
P-1260          	3971207.113       	3706157.144       
P-1264          	3971989.230       	3706442.590       
P-1264          	3971970.549       	3706453.375       
P-1264          	3972071.764       	3706604.348       
P-1265          	3972795.449       	3704845.682       
P-1265          	3972793.663       	3704840.377       
P-1265          	3972762.061       	3704746.533       
P-1270          	3972507.369       	3705167.571       
P-1270          	3972326.666       	3705330.552       
P-1271          	3972271.550       	3704982.982       
P-1271          	3972326.981       	3704970.533       
P-1271          	3972363.556       	3704962.322       
P-1271          	3972409.147       	3704947.930       
P-1272          	3972189.647       	3705001.383       
P-1272          	3972193.875       	3705000.433       
P-1273          	3971710.009       	3704703.795       
P-1274          	3961505.935       	3698790.392       
P-1276          	3970538.534       	3703754.692       
P-1276          	3970489.335       	3703538.430       
P-1276          	3970519.310       	3703460.694       
P-1276          	3970556.077       	3703407.819       
P-1276          	3970782.257       	3703337.714       
P-1277          	3971238.848       	3704159.973       
P-1278          	3971684.403       	3704213.907       
P-1279          	3972308.318       	3704411.513       
P-1279          	3972565.916       	3704218.432       
P-1282          	3972460.902       	3704041.109       
P-1283          	3972337.031       	3704018.839       
P-1283          	3972361.473       	3704025.369       
P-1285          	3961657.491       	3698731.407       
P-1286          	3972898.135       	3704550.196       
P-1286          	3973110.614       	3704522.060       
P-1286          	3973170.002       	3704531.427       
P-1286          	3973210.639       	3704590.815       
P-1286          	3973276.260       	3704581.430       
P-1286          	3973279.376       	3704775.194       
P-1286          	3973338.764       	3704868.933       
P-1286          	3973863.766       	3704837.681       
P-1286          	3974391.884       	3704812.697       
P-1286          	3974854.364       	3704793.945       
P-1286          	3975523.143       	3704772.060       
P-1286          	3976070.012       	3704728.307       
P-1286          	3976570.012       	3704687.688       
P-1286          	3977126.266       	3704640.818       
P-1286          	3977585.629       	3704606.432       
P-1286          	3977985.640       	3704568.930       
P-1286          	3978195.003       	3704468.940       
P-1286          	3978491.890       	3704228.307       
P-1286          	3978973.139       	3703834.565       
P-1286          	3979426.252       	3703500.192       
P-1286          	3979670.001       	3703318.930       
P-1286          	3979904.384       	3703225.191       
P-1286          	3980610.630       	3702962.690       
P-1286          	3981401.267       	3702643.935       
P-1286          	3981951.253       	3702422.071       
P-1286          	3982110.630       	3702347.066       
P-1286          	3982282.508       	3702253.309       
P-1288          	3972321.256       	3706694.481       
P-1288          	3972498.842       	3706605.661       
P-1289          	3972187.227       	3706690.301       
P-129           	3958352.987       	3696739.241       
P-129           	3958366.675       	3696607.817       
P-129           	3958369.704       	3696527.769       
P-1291          	3971396.839       	3706753.396       
P-1291          	3971256.668       	3706543.262       
P-1293          	3971185.305       	3706363.925       
P-1294          	3971273.384       	3706381.292       
P-1294          	3971269.939       	3706372.767       
P-1296          	3961847.234       	3698672.719       
P-1297          	3966557.303       	3708082.848       
P-1297          	3966615.930       	3707928.295       
P-1298          	3967847.502       	3708253.606       
P-1298          	3968213.371       	3708324.619       
P-1299          	3968864.677       	3708269.731       
P-1299          	3968876.192       	3708290.157       
P-13            	3967862.394       	3700496.786       
P-13            	3967934.094       	3700601.456       
P-13            	3968010.398       	3700712.848       
P-1302          	3969154.123       	3708638.524       
P-1302          	3969132.402       	3708746.835       
P-1303          	3969216.050       	3708311.663       
P-1303          	3969373.816       	3708241.210       
P-1303          	3969575.529       	3708155.314       
P-1303          	3969810.051       	3708013.515       
P-1303          	3970034.524       	3707784.875       
P-1303          	3970264.063       	3707639.608       
P-1303          	3970284.034       	3707626.969       
P-1303          	3970687.756       	3707388.944       
P-1303          	3970916.851       	3707279.763       
P-1303          	3971261.781       	3707087.400       
P-1307          	3962160.375       	3698490.617       
P-1307          	3962222.438       	3698460.688       
P-1308          	3966483.891       	3706617.392       
P-1308          	3966703.777       	3706192.747       
P-1308          	3966654.509       	3706109.723       
P-1308          	3966647.441       	3706105.926       
P-1309          	3966292.071       	3707642.761       
P-1309          	3966287.694       	3707666.677       
P-1312          	3966131.888       	3708033.282       
P-1312          	3966164.351       	3707821.491       
P-1312          	3966170.599       	3707780.726       
P-1312          	3966207.419       	3707728.026       
P-1315          	3972441.958       	3706573.446       
P-1316          	3972240.208       	3706703.900       
P-1318          	3962290.514       	3698397.735       
P-1318          	3962008.981       	3698435.921       
P-1319          	3966252.695       	3707688.773       
P-1322          	3960369.407       	3695425.143       
P-1323          	3959275.054       	3695158.889       
P-1323          	3959375.639       	3695079.384       
P-1323          	3959308.583       	3694987.396       
P-1323          	3959276.490       	3694982.669       
P-1323          	3959087.139       	3694841.167       
P-1323          	3958830.345       	3694632.837       
P-1324          	3960623.796       	3705935.995       
P-1326          	3959276.525       	3695221.673       
P-1327          	3959391.992       	3695192.925       
P-1327          	3959328.647       	3695131.751       
P-1327          	3959395.301       	3695074.096       
P-1328          	3959307.567       	3694963.602       
P-1328          	3959300.599       	3694962.079       
P-1329          	3958797.693       	3694576.373       
P-1329          	3958791.915       	3694587.455       
P-1329          	3958716.052       	3694521.905       
P-133           	3970828.277       	3700744.433       
P-1331          	3959063.695       	3695233.019       
P-1332          	3959030.657       	3695266.442       
P-1334          	3958618.776       	3695166.785       
P-1336          	3961525.754       	3697958.139       
P-1336          	3961640.468       	3697834.531       
P-1336          	3961701.257       	3697729.149       
P-1338          	3961977.484       	3697102.547       
P-1338          	3962133.290       	3697223.879       
P-1338          	3962322.692       	3697377.980       
P-134           	3969616.936       	3706266.950       
P-1342          	3958729.981       	3696148.327       
P-1344          	3958855.790       	3696488.222       
P-1346          	3960950.154       	3704685.219       
P-1346          	3961399.485       	3704627.845       
P-1346          	3961817.703       	3704509.755       
P-1346          	3961862.989       	3704496.430       
P-1348          	3960666.766       	3695995.975       
P-1350          	3960129.508       	3695724.702       
P-1350          	3960116.876       	3695716.076       
P-1350          	3959876.865       	3695552.176       
P-1351          	3960966.542       	3696223.634       
P-1351          	3960966.454       	3696172.002       
P-1351          	3960859.829       	3696156.700       
P-1354          	3960471.794       	3694254.694       
P-1354          	3960319.718       	3694244.364       
P-1354          	3960244.124       	3694213.790       
P-1354          	3960187.127       	3694168.674       
P-1354          	3960121.491       	3694101.996       
P-1354          	3960074.673       	3694032.164       
P-1354          	3960062.498       	3694007.553       
P-1354          	3960025.982       	3693933.733       
P-1355          	3960787.787       	3694134.154       
P-1356          	3960749.072       	3693920.147       
P-1357          	3960514.689       	3704517.666       
P-1357          	3960436.935       	3704319.578       
P-1358          	3961591.480       	3694189.161       
P-1358          	3961543.840       	3694198.090       
P-1358          	3961464.512       	3694246.162       
P-1359          	3962064.955       	3694287.434       
P-1359          	3962291.266       	3694341.027       
P-1359          	3962327.001       	3694376.761       
P-1359          	3962338.924       	3694421.425       
P-1359          	3962335.947       	3694486.941       
P-1361          	3962395.475       	3694061.123       
P-1364          	3961766.930       	3693559.460       
P-1364          	3961810.298       	3693630.526       
P-1364          	3961861.457       	3693662.111       
P-1364          	3961916.662       	3693681.034       
P-1365          	3961742.759       	3693517.928       
P-1366          	3960636.435       	3693526.986       
P-1366          	3960650.886       	3693523.568       
P-1366          	3960760.767       	3693504.642       
P-1366          	3960851.310       	3693512.864       
P-1367          	3960569.805       	3693351.742       
P-1367          	3960581.956       	3693256.428       
P-1367          	3960606.905       	3693087.018       
P-1367          	3960649.765       	3692841.570       
P-1368          	3960189.929       	3704578.682       
P-1368          	3960190.087       	3704593.231       
P-1368          	3960191.400       	3704716.682       
P-1368          	3959968.783       	3704718.608       
P-1368          	3959692.748       	3704723.370       
P-1368          	3959578.560       	3704730.741       
P-1370          	3959966.245       	3693557.536       
P-1377          	3959878.332       	3693040.672       
P-1378          	3959936.988       	3692619.286       
P-1378          	3959928.479       	3692584.024       
P-138           	3958766.226       	3691035.817       
P-138           	3958821.916       	3691320.108       
P-139           	3962464.937       	3699694.659       
P-139           	3962599.596       	3699725.328       
P-146           	3968172.945       	3704243.067       
P-146           	3968259.365       	3704293.525       
P-147           	3959637.457       	3697004.361       
P-147           	3959636.809       	3696882.469       
P-15            	3966451.873       	3702322.680       
P-152           	3966895.092       	3703593.190       
P-153           	3963346.382       	3696048.044       
P-155           	3966273.092       	3704067.879       
P-155           	3966463.704       	3704069.472       
P-155           	3966550.370       	3704165.943       
P-156           	3963087.733       	3696621.911       
P-156           	3963125.691       	3696413.773       
P-156           	3963104.839       	3696397.386       
P-156           	3963073.902       	3696373.067       
P-156           	3963139.891       	3695944.849       
P-156           	3963193.640       	3695612.369       
P-156           	3963270.852       	3695612.194       
P-156           	3963309.037       	3695612.124       
P-158           	3967177.926       	3704437.685       
P-159           	3964077.596       	3696917.695       
P-16            	3960618.163       	3698160.849       
P-160           	3966128.649       	3708193.150       
P-160           	3966146.648       	3708109.478       
P-161           	3971400.656       	3700338.208       
P-161           	3971279.009       	3700145.880       
P-162           	3967079.766       	3701435.798       
P-162           	3967069.800       	3701420.620       
P-162           	3966945.241       	3701233.074       
P-162           	3966918.065       	3701189.944       
P-163           	3963314.552       	3695535.543       
P-163           	3963316.478       	3695429.198       
P-163           	3963300.178       	3695292.564       
P-163           	3963280.236       	3695095.772       
P-163           	3963279.360       	3695085.588       
P-163           	3963262.710       	3694892.098       
P-164           	3964382.519       	3697446.619       
P-166           	3968326.002       	3703334.232       
P-167           	3960087.333       	3699444.206       
P-168           	3964845.987       	3705330.669       
P-170           	3970723.053       	3700818.020       
P-170           	3970828.277       	3700744.433       
P-170           	3970857.551       	3700723.948       
P-170           	3970972.352       	3700646.843       
P-170           	3971046.219       	3700626.393       
P-172           	3964193.518       	3696060.265       
P-172           	3963856.070       	3695996.445       
P-172           	3963751.120       	3695977.083       
P-173           	3966930.439       	3710145.247       
P-173           	3966848.640       	3710025.631       
P-173           	3966826.650       	3709921.527       
P-173           	3966630.803       	3709648.976       
P-173           	3966518.400       	3709508.840       
P-173           	3966424.696       	3709392.673       
P-173           	3966382.203       	3709432.032       
P-173           	3966312.573       	3709347.187       
P-173           	3966196.126       	3709345.314       
P-173           	3966117.689       	3709242.103       
P-174           	3963350.514       	3695540.691       
P-174           	3963314.552       	3695535.543       
P-176           	3967922.402       	3702702.728       
P-176           	3967930.258       	3702714.865       
P-176           	3968079.529       	3702945.466       
P-178           	3967526.428       	3704688.230       
P-178           	3967610.090       	3704554.871       
P-178           	3967750.909       	3704342.181       
P-179           	3968264.233       	3704330.398       
P-179           	3968261.939       	3704387.614       
P-179           	3968237.865       	3704444.481       
P-18            	3962875.638       	3698509.543       
P-18            	3962800.178       	3698624.117       
P-180           	3965508.018       	3703181.228       
P-182           	3967385.079       	3702376.916       
P-184           	3970144.739       	3704125.061       
P-184           	3970272.286       	3704032.933       
P-184           	3970349.602       	3703989.477       
P-184           	3970445.180       	3703901.639       
P-184           	3970482.067       	3703855.794       
P-185           	3967556.366       	3702627.318       
P-188           	3971452.953       	3700351.217       
P-188           	3971428.652       	3700424.068       
P-188           	3971401.706       	3700456.669       
P-188           	3971353.804       	3700490.039       
P-188           	3971268.714       	3700542.091       
P-188           	3971190.435       	3700581.572       
P-189           	3960429.144       	3698813.311       
P-190           	3972271.550       	3704982.982       
P-191           	3966512.342       	3706144.215       
P-193           	3963204.951       	3695960.186       
P-193           	3963250.735       	3695721.691       
P-193           	3963269.889       	3695630.053       
P-193           	3963270.852       	3695612.194       
P-195           	3968091.496       	3702963.933       
P-198           	3972498.842       	3706605.661       
P-198           	3972512.026       	3706622.749       
P-198           	3972515.142       	3706707.139       
P-198           	3972708.906       	3706954.005       
P-199           	3959579.659       	3697323.396       
P-2             	3966483.891       	3706617.392       
P-2             	3966549.354       	3706261.415       
P-2             	3966624.447       	3706115.151       
P-20            	3960647.996       	3695626.673       
P-200           	3963658.309       	3697394.724       
P-200           	3963530.359       	3697271.921       
P-200           	3963437.215       	3697171.057       
P-200           	3963360.310       	3697098.730       
P-200           	3963216.261       	3696938.215       
P-200           	3963172.263       	3696916.119       
P-200           	3963120.666       	3696904.336       
P-201           	3964235.030       	3697678.708       
P-203           	3963608.190       	3695643.707       
P-203           	3963656.155       	3695671.162       
P-203           	3963807.164       	3695709.680       
P-204           	3969797.673       	3706291.967       
P-204           	3969991.577       	3706072.974       
P-204           	3970178.932       	3705866.569       
P-205           	3967921.404       	3703162.146       
P-207           	3964167.448       	3705114.241       
P-207           	3964175.782       	3705110.249       
P-208           	3968280.510       	3703302.993       
P-209           	3971509.872       	3703126.707       
P-209           	3971616.725       	3703185.587       
P-209           	3971566.020       	3703256.033       
P-21            	3962677.725       	3695413.476       
P-21            	3962593.323       	3695294.052       
P-212           	3968283.474       	3704319.805       
P-212           	3968278.222       	3704391.956       
P-212           	3968248.493       	3704461.009       
P-213           	3971143.233       	3701200.487       
P-215           	3967715.336       	3702868.244       
P-215           	3967744.120       	3702907.782       
P-216           	3960767.858       	3697864.645       
P-216           	3960828.419       	3697689.738       
P-217           	3966619.906       	3699483.240       
P-220           	3960255.550       	3710870.875       
P-220           	3960427.376       	3710855.871       
P-220           	3960528.293       	3710913.140       
P-220           	3960907.399       	3711192.694       
P-220           	3960979.673       	3711258.157       
P-220           	3961016.493       	3711346.784       
P-220           	3961114.329       	3711585.946       
P-220           	3961216.612       	3711776.856       
P-220           	3961351.267       	3712061.522       
P-220           	3961383.640       	3712110.965       
P-220           	3961397.297       	3712163.805       
P-220           	3961525.159       	3712358.129       
P-220           	3961608.673       	3712482.560       
P-220           	3961738.217       	3712678.600       
P-220           	3961808.110       	3712821.782       
P-220           	3961947.878       	3713012.692       
P-220           	3962056.972       	3713130.312       
P-221           	3971459.554       	3700351.864       
P-221           	3971443.166       	3700412.163       
P-221           	3971422.821       	3700444.903       
P-221           	3971388.785       	3700471.883       
P-221           	3971297.025       	3700528.767       
P-221           	3971212.530       	3700577.528       
P-222           	3962029.834       	3699609.515       
P-224           	3958899.538       	3696062.698       
P-224           	3959006.881       	3696100.989       
P-226           	3962291.266       	3693742.491       
P-226           	3962350.829       	3693736.538       
P-226           	3962414.171       	3693694.049       
P-226           	3962433.116       	3693544.216       
P-227           	3959459.398       	3690575.866       
P-227           	3959595.315       	3690558.445       
P-227           	3959724.245       	3690596.771       
P-227           	3959786.625       	3690637.147       
P-228           	3962054.188       	3693708.630       
P-228           	3962124.921       	3693718.575       
P-230           	3971041.545       	3704471.776       
P-230           	3971056.987       	3704245.728       
P-230           	3971082.987       	3704212.532       
P-231           	3966713.669       	3704224.963       
P-231           	3966716.435       	3704222.039       
P-232           	3966143.835       	3707672.753       
P-232           	3966185.241       	3707644.863       
P-234           	3962339.011       	3701700.470       
P-235           	3961532.656       	3699379.428       
P-235           	3961535.723       	3699257.200       
P-235           	3961542.672       	3698980.308       
P-235           	3961547.412       	3698791.443       
P-237           	3970229.041       	3699414.858       
P-238           	3965471.138       	3700397.655       
P-239           	3960609.216       	3696083.831       
P-24            	3962944.744       	3707698.455       
P-24            	3963448.613       	3707658.484       
P-24            	3964469.185       	3707578.734       
P-24            	3964863.540       	3707572.256       
P-24            	3965338.276       	3707551.036       
P-24            	3965731.440       	3707618.250       
P-245           	3967624.149       	3705389.890       
P-245           	3967645.086       	3705359.940       
P-246           	3967233.733       	3701175.433       
P-246           	3967400.184       	3701070.156       
P-246           	3967420.949       	3701022.341       
P-246           	3967481.387       	3700995.903       
P-247           	3965107.522       	3700876.177       
P-247           	3965156.645       	3700793.456       
P-25            	3972840.585       	3705113.733       
P-252           	3958860.074       	3690757.058       
P-252           	3958983.231       	3690716.894       
P-253           	3961756.879       	3693514.146       
P-253           	3961905.210       	3693468.855       
P-253           	3962184.796       	3693365.715       
P-253           	3962298.789       	3693332.180       
P-253           	3962377.810       	3693304.785       
P-253           	3962516.825       	3693291.181       
P-253           	3962719.996       	3693325.419       
P-256           	3971435.112       	3702882.607       
P-258           	3959929.844       	3690725.701       
P-258           	3960166.801       	3690879.021       
P-26            	3960868.513       	3695294.385       
P-265           	3962588.494       	3697614.696       
P-265           	3962730.443       	3697728.133       
P-265           	3962808.705       	3697791.058       
P-267           	3968161.757       	3704600.007       
P-269           	3959626.257       	3696667.123       
P-27            	3960559.178       	3690783.986       
P-27            	3960515.425       	3690199.596       
P-27            	3960602.931       	3690193.346       
P-27            	3960562.294       	3689793.353       
P-27            	3960534.176       	3689421.478       
P-27            	3960481.056       	3689074.605       
P-27            	3960447.038       	3688948.084       
P-27            	3960440.419       	3688640.226       
P-27            	3960465.421       	3688390.226       
P-27            	3960515.425       	3687905.861       
P-27            	3960559.178       	3687421.479       
P-27            	3960565.428       	3687133.976       
P-27            	3960571.678       	3686877.726       
P-27            	3960574.795       	3686715.232       
P-27            	3960668.551       	3686277.736       
P-27            	3960706.054       	3686115.225       
P-27            	3960715.421       	3686033.987       
P-27            	3960696.670       	3685943.347       
P-27            	3960524.487       	3685456.471       
P-270           	3962308.946       	3702079.822       
P-274           	3960855.614       	3694971.823       
P-276           	3971293.166       	3701430.621       
P-278           	3960236.376       	3693399.589       
P-278           	3960239.145       	3693286.454       
P-278           	3960231.196       	3693240.775       
P-278           	3960197.423       	3693153.357       
P-278           	3960143.778       	3693030.169       
P-278           	3960076.938       	3692836.568       
P-279           	3961926.833       	3699559.511       
P-279           	3961979.533       	3699537.188       
P-28            	3966931.612       	3702193.449       
P-28            	3967077.473       	3702161.619       
P-28            	3967138.139       	3702135.882       
P-280           	3955803.769       	3690197.023       
P-280           	3955832.937       	3690122.000       
P-280           	3955857.939       	3690005.325       
P-280           	3955864.189       	3689882.382       
P-283           	3970399.676       	3701566.059       
P-283           	3970329.973       	3701465.875       
P-284           	3961126.304       	3707675.327       
P-284           	3960578.489       	3707517.262       
P-284           	3960621.787       	3708175.502       
P-284           	3960723.020       	3709286.556       
P-284           	3960760.908       	3709841.742       
P-284           	3960737.236       	3710112.402       
P-284           	3960683.084       	3710291.721       
P-284           	3960584.985       	3710481.177       
P-284           	3960432.733       	3710640.187       
P-287           	3963062.504       	3696600.901       
P-287           	3963054.170       	3696599.571       
P-288           	3963198.049       	3693408.948       
P-289           	3960590.965       	3698788.615       
P-289           	3960538.518       	3698805.730       
P-29            	3966899.523       	3701625.135       
P-290           	3962023.531       	3700527.051       
P-290           	3962000.490       	3700643.848       
P-290           	3962014.637       	3700690.420       
P-290           	3962117.795       	3701030.412       
P-291           	3964951.449       	3700822.642       
P-291           	3964938.580       	3700825.443       
P-291           	3964841.024       	3700974.193       
P-291           	3964842.985       	3700992.367       
P-291           	3964981.300       	3701081.449       
P-291           	3965002.433       	3701081.799       
P-291           	3965094.649       	3700938.249       
P-291           	3965100.251       	3700918.692       
P-292           	3963391.904       	3699911.689       
P-292           	3963515.000       	3699940.650       
P-292           	3963874.570       	3700025.248       
P-292           	3963923.986       	3700035.892       
P-293           	3962536.408       	3698411.115       
P-293           	3962614.906       	3698253.555       
P-296           	3956981.827       	3690558.445       
P-296           	3957117.297       	3690289.844       
P-296           	3957135.147       	3690237.852       
P-296           	3957156.069       	3690115.890       
P-296           	3957149.101       	3690018.316       
P-296           	3957080.975       	3689784.128       
P-296           	3957023.654       	3689596.666       
P-296           	3956940.065       	3689323.118       
P-299           	3965947.422       	3702051.492       
P-3             	3931137.115       	3715691.586       
P-3             	3931099.805       	3715638.754       
P-3             	3930380.875       	3714206.614       
P-3             	3930226.710       	3713918.147       
P-3             	3929877.428       	3713515.685       
P-3             	3929185.094       	3712456.718       
P-3             	3929150.985       	3712391.272       
P-3             	3929069.146       	3712206.347       
P-3             	3928944.250       	3711833.542       
P-3             	3928735.641       	3711050.137       
P-3             	3928519.139       	3710223.435       
P-3             	3928331.350       	3709352.290       
P-3             	3928106.710       	3708761.310       
P-3             	3928096.530       	3708737.643       
P-3             	3927876.999       	3708329.587       
P-3             	3927627.042       	3707843.757       
P-3             	3927561.029       	3707710.645       
P-30            	3960685.797       	3694253.836       
P-30            	3960543.490       	3694261.592       
P-301           	3965930.071       	3701951.888       
P-301           	3965917.276       	3701844.342       
P-303           	3966035.278       	3709069.769       
P-303           	3965992.558       	3708991.805       
P-303           	3965972.178       	3708932.855       
P-303           	3965963.774       	3708875.410       
P-303           	3965992.628       	3708739.967       
P-303           	3966065.094       	3708499.929       
P-304           	3960716.734       	3698640.645       
P-304           	3960687.408       	3698296.485       
P-306           	3959396.390       	3690862.675       
P-306           	3959476.367       	3691242.223       
P-307           	3967528.449       	3701171.091       
P-308           	3961012.461       	3698721.668       
P-308           	3961072.064       	3698696.303       
P-308           	3961202.290       	3698625.675       
P-308           	3961259.577       	3698568.406       
P-308           	3961300.493       	3698510.891       
P-308           	3961305.091       	3698489.121       
P-308           	3961314.272       	3698445.638       
P-308           	3961320.786       	3698380.297       
P-308           	3961334.915       	3698293.264       
P-308           	3961346.663       	3698240.722       
P-308           	3961390.048       	3698143.236       
P-308           	3961426.866       	3698087.144       
P-309           	3958633.440       	3697997.772       
P-31            	3972490.718       	3704865.501       
P-31            	3972701.535       	3704845.647       
P-31            	3972731.596       	3704856.590       
P-31            	3972793.663       	3704840.377       
P-310           	3961460.869       	3698035.280       
P-311           	3965446.080       	3687210.218       
P-311           	3965319.787       	3687413.547       
P-313           	3962614.906       	3698253.555       
P-314           	3964623.047       	3700309.231       
P-315           	3963190.874       	3698083.218       
P-316           	3961833.234       	3693935.899       
P-316           	3961511.082       	3693864.576       
P-316           	3961436.637       	3693864.576       
P-316           	3961359.216       	3693921.162       
P-316           	3961246.121       	3694057.791       
P-317           	3959225.944       	3690642.064       
P-317           	3959291.327       	3690623.509       
P-322           	3965789.042       	3686658.138       
P-322           	3965685.347       	3686825.043       
P-323           	3972715.454       	3704553.435       
P-323           	3972700.152       	3704507.301       
P-324           	3965045.097       	3702970.800       
P-324           	3965039.025       	3702958.576       
P-324           	3965098.658       	3702916.346       
P-324           	3965273.670       	3702802.490       
P-324           	3965377.739       	3702734.365       
P-324           	3965416.310       	3702711.745       
P-327           	3971408.290       	3703962.795       
P-329           	3967769.030       	3699554.766       
P-333           	3958263.585       	3693338.692       
P-335           	3966723.999       	3705946.774       
P-335           	3966876.530       	3705711.595       
P-335           	3966913.123       	3705655.175       
P-339           	3962366.517       	3698391.205       
P-339           	3962508.281       	3698395.302       
P-339           	3962530.884       	3698402.935       
P-34            	3960424.637       	3698511.149       
P-341           	3968918.112       	3703613.453       
P-341           	3968910.844       	3703544.327       
P-341           	3968910.461       	3703540.689       
P-342           	3963970.506       	3693267.940       
P-342           	3964441.375       	3693398.360       
P-343           	3968617.829       	3705200.276       
P-344           	3959695.746       	3693433.458       
P-345           	3971371.514       	3705561.911       
P-345           	3971445.058       	3705641.367       
P-345           	3971394.248       	3705686.427       
P-346           	3966402.058       	3706954.670       
P-346           	3966448.822       	3706685.079       
P-347           	3968921.124       	3704574.410       
P-348           	3968770.273       	3704566.181       
P-35            	3964492.891       	3705432.733       
P-35            	3964276.787       	3705435.517       
P-350           	3967556.414       	3707304.099       
P-350           	3967555.622       	3707311.572       
P-350           	3967563.448       	3707329.329       
P-353           	3963437.479       	3695503.833       
P-354           	3963586.367       	3696630.875       
P-354           	3963601.144       	3696674.786       
P-354           	3963725.820       	3696806.378       
P-354           	3963824.847       	3696867.131       
P-355           	3968523.127       	3703610.354       
P-355           	3968584.003       	3703649.783       
P-355           	3968644.249       	3703659.535       
P-355           	3968703.602       	3703657.189       
P-355           	3968760.416       	3703744.887       
P-355           	3968914.821       	3703705.634       
P-357           	3964379.472       	3697154.266       
P-357           	3964378.398       	3697059.540       
P-360           	3967645.107       	3700126.655       
P-360           	3967702.032       	3699849.664       
P-361           	3959355.360       	3697154.364       
P-362           	3960677.761       	3699240.686       
P-365           	3958709.205       	3697230.840       
P-367           	3965618.862       	3704088.189       
P-367           	3965698.631       	3704086.361       
P-367           	3965712.864       	3704086.035       
P-367           	3965727.711       	3704085.580       
P-37            	3967885.232       	3705002.906       
P-37            	3967980.932       	3704849.079       
P-370           	3964227.133       	3691809.653       
P-370           	3964186.252       	3691782.708       
P-370           	3964324.864       	3691569.037       
P-370           	3964450.276       	3691360.759       
P-370           	3964629.210       	3691089.539       
P-372           	3964374.343       	3696816.813       
P-373           	3965896.840       	3700199.824       
P-373           	3966091.794       	3700354.367       
P-373           	3966143.579       	3700398.027       
P-374           	3959858.863       	3697768.901       
P-374           	3960286.655       	3696618.141       
P-375           	3963639.214       	3693987.373       
P-375           	3963955.788       	3694045.430       
P-376           	3964090.833       	3696328.505       
P-38            	3966064.741       	3701635.384       
P-380           	3967193.342       	3700024.285       
P-380           	3967426.744       	3700134.359       
P-382           	3968093.440       	3703417.816       
P-382           	3968115.782       	3703402.703       
P-383           	3955795.517       	3689179.552       
P-384           	3963254.210       	3693799.748       
P-384           	3963307.321       	3693550.968       
P-385           	3969105.853       	3704652.391       
P-385           	3969041.321       	3704930.318       
P-385           	3969034.857       	3704958.155       
P-39            	3960792.247       	3694221.586       
P-391           	3967006.910       	3700830.541       
P-391           	3967061.347       	3700908.275       
P-391           	3967164.856       	3701070.963       
P-391           	3967221.250       	3701156.699       
P-391           	3967233.733       	3701175.433       
P-392           	3966045.538       	3686691.561       
P-392           	3966126.126       	3686736.947       
P-392           	3966220.935       	3686799.219       
P-392           	3966285.208       	3686849.047       
P-392           	3966329.136       	3686899.016       
P-392           	3966354.925       	3686980.762       
P-392           	3966368.311       	3687065.757       
P-392           	3966359.390       	3687153.445       
P-392           	3966382.886       	3687181.371       
P-392           	3966446.546       	3687213.131       
P-392           	3966653.571       	3687274.385       
P-395           	3966777.524       	3699810.763       
P-4             	3966557.804       	3706699.270       
P-4             	3966680.090       	3706769.271       
P-4             	3966734.867       	3706806.542       
P-4             	3966779.798       	3706865.805       
P-4             	3966818.860       	3706896.495       
P-401           	3972762.061       	3704746.533       
P-401           	3972742.854       	3704750.577       
P-404           	3967497.180       	3700856.363       
P-404           	3967544.662       	3700530.622       
P-404           	3967582.287       	3700396.114       
P-404           	3967603.945       	3700318.685       
P-406           	3960363.383       	3696150.922       
P-406           	3960558.740       	3696205.005       
P-406           	3960638.035       	3696083.656       
P-407           	3967855.082       	3704192.288       
P-408           	3966113.365       	3700511.608       
P-408           	3966153.108       	3700463.846       
P-410           	3967276.751       	3711568.298       
P-410           	3967666.082       	3711540.073       
P-411           	3962287.402       	3700806.558       
P-411           	3962363.377       	3700471.822       
P-412           	3967895.422       	3704187.583       
P-412           	3967997.810       	3704210.396       
P-413           	3967506.879       	3701103.316       
P-413           	3967506.597       	3701098.673       
P-413           	3967501.242       	3701010.453       
P-414           	3966371.625       	3700564.906       
P-414           	3966497.670       	3700664.420       
P-414           	3966578.535       	3700728.645       
P-414           	3966612.787       	3700755.848       
P-414           	3966690.313       	3700841.691       
P-414           	3966737.255       	3700919.149       
P-415           	3966214.597       	3698876.445       
P-418           	3966534.539       	3699295.114       
P-419           	3962640.368       	3698198.391       
P-419           	3962653.932       	3698163.755       
P-419           	3962723.545       	3698005.761       
P-419           	3962765.704       	3697918.990       
P-419           	3962811.576       	3697818.668       
P-42            	3956650.781       	3690976.576       
P-42            	3956567.162       	3690987.029       
P-42            	3956493.978       	3690962.657       
P-42            	3956389.436       	3690872.052       
P-42            	3956086.281       	3690589.802       
P-42            	3955957.351       	3690478.292       
P-42            	3955851.183       	3690348.651       
P-421           	3965734.802       	3702496.884       
P-421           	3965732.053       	3702492.822       
P-421           	3965721.128       	3702406.401       
P-421           	3965694.428       	3702176.833       
P-421           	3965653.161       	3701857.921       
P-422           	3959135.026       	3697528.051       
P-423           	3965591.392       	3704096.960       
P-423           	3965729.409       	3704096.575       
P-423           	3965740.457       	3704096.540       
P-424           	3968203.041       	3704490.265       
P-425           	3964363.925       	3696281.341       
P-426           	3963438.055       	3695558.251       
P-427           	3960662.371       	3698057.200       
P-431           	3960292.002       	3699797.185       
P-433           	3959702.552       	3690906.082       
P-434           	3961107.688       	3697806.732       
P-437           	3961078.419       	3699981.915       
P-439           	3972109.144       	3705126.286       
P-439           	3972155.945       	3705084.985       
P-44            	3962339.011       	3701700.470       
P-44            	3962531.233       	3701749.818       
P-441           	3971587.259       	3706876.304       
P-441           	3972143.355       	3707158.676       
P-441           	3972177.490       	3706984.805       
P-441           	3972177.794       	3706958.207       
P-441           	3972152.792       	3706804.222       
P-441           	3972168.619       	3706752.030       
P-443           	3972311.399       	3706859.321       
P-443           	3972452.918       	3707038.062       
P-446           	3960419.795       	3703898.014       
P-447           	3971586.942       	3705873.480       
P-448           	3993861.678       	3687350.710       
P-448           	3993934.600       	3686998.620       
P-448           	3994036.673       	3686529.872       
P-448           	3994151.264       	3685619.462       
P-448           	3994203.351       	3685196.533       
P-448           	3994222.085       	3684890.279       
P-448           	3994226.252       	3684581.959       
P-448           	3994236.669       	3684427.800       
P-448           	3994330.426       	3684229.869       
P-448           	3994363.762       	3684154.881       
P-448           	3994382.513       	3684059.041       
P-448           	3994409.598       	3683761.121       
P-448           	3994459.602       	3683434.050       
P-448           	3994495.003       	3683109.045       
P-448           	3994507.504       	3682715.285       
P-448           	3994507.504       	3682398.631       
P-448           	3994509.588       	3682092.395       
P-448           	3994522.088       	3681827.793       
P-45            	3963544.768       	3697759.718       
P-450           	3968018.266       	3711202.513       
P-454           	3959127.211       	3697888.181       
P-456           	3968306.182       	3704941.154       
P-458           	3960215.316       	3693542.740       
P-458           	3960237.166       	3693707.650       
P-458           	3960247.094       	3693745.397       
P-458           	3960261.013       	3693757.320       
P-458           	3960316.636       	3693751.368       
P-458           	3960413.982       	3693733.474       
P-458           	3960457.700       	3693725.560       
P-459           	3980313.586       	3716366.497       
P-459           	3980529.200       	3716600.880       
P-459           	3980757.332       	3716854.014       
P-459           	3981004.216       	3717135.266       
P-459           	3981335.454       	3717491.506       
P-459           	3981566.720       	3717757.140       
P-459           	3981666.709       	3717850.879       
P-459           	3982007.314       	3718166.500       
P-459           	3982194.845       	3718329.011       
P-459           	3982754.215       	3718860.264       
P-459           	3983113.589       	3719179.001       
P-459           	3983576.086       	3719566.510       
P-459           	3983957.328       	3719897.766       
P-459           	3984360.455       	3720266.507       
P-459           	3984741.714       	3720591.512       
P-459           	3985082.354       	3720850.879       
P-459           	3985354.204       	3721072.760       
P-459           	3985635.456       	3721288.374       
P-459           	3985966.694       	3721522.757       
P-459           	3986229.213       	3721679.000       
P-459           	3986969.828       	3722200.885       
P-459           	3987582.336       	3722616.513       
P-459           	3988013.564       	3722907.132       
P-459           	3988457.345       	3723225.887       
P-459           	3989169.842       	3723738.388       
P-459           	3989841.720       	3724335.261       
P-459           	3990454.210       	3724844.627       
P-459           	3991426.092       	3725700.885       
P-459           	3992144.839       	3726313.375       
P-459           	3992722.961       	3726819.625       
P-459           	3993135.472       	3727200.884       
P-459           	3993446.673       	3727468.051       
P-46            	3962703.042       	3700478.781       
P-46            	3962780.339       	3700216.914       
P-460           	3966630.540       	3706096.785       
P-460           	3966667.465       	3706036.224       
P-462           	3968557.670       	3704856.467       
P-463           	3962740.982       	3694972.339       
P-463           	3962529.501       	3694951.486       
P-463           	3962239.114       	3694950.456       
P-469           	3968242.750       	3705220.463       
P-469           	3968215.385       	3705351.068       
P-47            	3967030.726       	3711835.071       
P-470           	3971974.663       	3706427.550       
P-471           	3966088.161       	3700579.298       
P-473           	3960061.988       	3695183.257       
P-475           	3966942.064       	3699506.811       
P-475           	3966942.659       	3699476.462       
P-475           	3966933.082       	3699448.737       
P-475           	3966880.487       	3699426.396       
P-475           	3966727.518       	3699367.656       
P-476           	3967256.984       	3705111.019       
P-48            	3967170.144       	3702487.219       
P-480           	3966613.259       	3701052.368       
P-483           	3956804.119       	3690885.989       
P-483           	3956865.422       	3690773.669       
P-483           	3956884.254       	3690743.122       
P-484           	3967547.743       	3701172.632       
P-485           	3965115.738       	3699591.752       
P-485           	3964868.460       	3699401.617       
P-486           	3966304.730       	3707435.096       
P-486           	3966326.597       	3707318.194       
P-486           	3966315.410       	3707268.698       
P-486           	3966328.383       	3707207.612       
P-486           	3966347.362       	3707187.933       
P-487           	3966244.803       	3700470.381       
P-489           	3964812.882       	3700053.395       
P-49            	3959440.118       	3698134.358       
P-490           	3960823.149       	3694500.089       
P-491           	3967982.088       	3710535.575       
P-491           	3967960.255       	3710312.275       
P-491           	3967913.063       	3710315.908       
P-491           	3967793.086       	3710325.144       
P-491           	3967615.605       	3710334.721       
P-494           	3966728.516       	3705950.171       
P-495           	3958016.073       	3693953.990       
P-496           	3967048.111       	3712110.037       
P-497           	3969012.482       	3704998.529       
P-498           	3958362.368       	3694250.475       
P-5             	3966464.685       	3706721.688       
P-500           	3959135.490       	3696166.377       
P-501           	3994768.972       	3688184.539       
P-501           	3994412.715       	3687906.439       
P-501           	3994165.849       	3687725.194       
P-501           	3993940.850       	3687534.564       
P-502           	3957070.278       	3691090.705       
P-503           	3964399.572       	3692840.204       
P-503           	3964360.861       	3692974.212       
P-503           	3964337.050       	3693126.079       
P-503           	3964310.245       	3693179.671       
P-503           	3964268.558       	3693197.547       
P-503           	3964197.089       	3693185.624       
P-503           	3964057.129       	3693135.008       
P-503           	3963991.613       	3693117.150       
P-505           	3966152.215       	3688529.662       
P-506           	3971689.052       	3703054.468       
P-509           	3994991.904       	3688343.934       
P-509           	3995245.003       	3688159.555       
P-509           	3995435.633       	3687981.444       
P-509           	3995685.633       	3687737.695       
P-509           	3996129.379       	3687322.067       
P-509           	3996351.260       	3687115.820       
P-509           	3996444.999       	3687100.185       
P-509           	3996723.135       	3687115.820       
P-509           	3997232.519       	3687153.305       
P-509           	3997566.891       	3687172.056       
P-509           	3997798.140       	3687190.825       
P-509           	3997948.133       	3687165.806       
P-509           	3998279.389       	3687068.933       
P-509           	3998626.262       	3686968.943       
P-509           	3998885.628       	3686928.307       
P-509           	3999413.764       	3686893.938       
P-509           	3999941.882       	3686875.187       
P-509           	4000313.757       	3686868.936       
P-509           	4000601.259       	3686856.435       
P-509           	4000738.752       	3686843.935       
P-509           	4000960.633       	3686759.562       
P-509           	4001798.139       	3686422.056       
P-509           	4002035.638       	3686312.682       
P-509           	4002120.010       	3686268.929       
P-509           	4002182.515       	3686259.563       
P-509           	4002160.630       	3685865.820       
P-509           	4002135.628       	3685412.690       
P-509           	4002129.377       	3685115.820       
P-509           	4002179.381       	3684700.192       
P-509           	4002213.124       	3684496.540       
P-509           	4002213.504       	3684494.243       
P-509           	4002266.887       	3684172.057       
P-509           	4002295.005       	3683962.693       
P-51            	3960200.137       	3700367.376       
P-51            	3960094.054       	3700406.279       
P-510           	3964237.044       	3705347.620       
P-512           	3967716.616       	3712035.987       
P-512           	3968140.042       	3712032.405       
P-513           	3969415.834       	3706665.207       
P-513           	3969475.504       	3706595.629       
P-513           	3969546.413       	3706526.962       
P-513           	3969647.067       	3706450.311       
P-514           	3963092.513       	3700456.493       
P-516           	3960529.046       	3705468.870       
P-516           	3960524.196       	3705415.592       
P-516           	3960555.326       	3705370.491       
P-516           	3960576.651       	3705344.229       
P-52            	3969054.606       	3702251.488       
P-520           	3959724.350       	3696203.062       
P-524           	3964767.437       	3705083.549       
P-527           	3963039.905       	3700719.114       
P-528           	3957123.048       	3692733.019       
P-530           	3965247.680       	3687704.733       
P-532           	3958624.410       	3695229.876       
P-533           	3965803.854       	3704658.187       
P-534           	3958685.675       	3695873.750       
P-535           	3958137.720       	3693030.992       
P-536           	3968810.962       	3708269.783       
P-539           	3958005.931       	3693129.104       
P-539           	3958036.908       	3693151.378       
P-539           	3958034.562       	3693166.068       
P-539           	3958094.947       	3693204.901       
P-539           	3958107.763       	3693192.488       
P-54            	3965119.057       	3704420.519       
P-54            	3965113.260       	3704368.163       
P-540           	3966868.644       	3701583.577       
P-541           	3967059.583       	3701863.304       
P-541           	3967183.770       	3702056.852       
P-544           	3968859.081       	3701981.384       
P-544           	3968730.827       	3701783.949       
P-546           	3966008.636       	3704439.290       
P-546           	3965984.347       	3704231.424       
P-547           	3966068.912       	3688265.386       
P-548           	3962876.531       	3695441.699       
P-549           	3967898.766       	3701636.985       
P-549           	3967920.861       	3701604.700       
P-55            	3964984.329       	3703260.838       
P-55            	3965001.820       	3703153.985       
P-550           	3965184.273       	3704664.367       
P-550           	3965203.882       	3704664.209       
P-551           	3962750.140       	3697693.695       
P-551           	3962840.219       	3697731.022       
P-551           	3962808.705       	3697791.058       
P-551           	3962804.555       	3697798.954       
P-558           	3958687.076       	3697772.937       
P-558           	3958719.112       	3697611.005       
P-56            	3960523.214       	3694596.866       
P-56            	3960321.644       	3694547.274       
P-56            	3960234.102       	3694534.528       
P-56            	3960157.697       	3694537.714       
P-56            	3960109.934       	3694558.427       
P-56            	3960046.257       	3694626.849       
P-56            	3959794.585       	3694908.436       
P-562           	3971443.604       	3700349.991       
P-562           	3971420.405       	3700423.928       
P-562           	3971379.488       	3700467.874       
P-562           	3971283.281       	3700526.351       
P-562           	3971221.617       	3700560.055       
P-563           	3960998.074       	3697384.342       
P-563           	3961275.614       	3697000.544       
P-563           	3961366.640       	3696964.425       
P-563           	3961436.602       	3696854.228       
P-563           	3961410.463       	3696749.441       
P-565           	3965992.445       	3687244.628       
P-565           	3966016.575       	3687254.781       
P-565           	3966056.130       	3687269.210       
P-565           	3966136.510       	3687272.309       
P-565           	3966199.120       	3687257.952       
P-565           	3966259.348       	3687220.064       
P-565           	3966302.523       	3687177.379       
P-565           	3966318.298       	3687151.432       
P-565           	3966327.070       	3687110.900       
P-566           	3959100.743       	3695224.755       
P-566           	3959173.603       	3695232.164       
P-566           	3959227.730       	3695225.333       
P-567           	3962995.832       	3697164.929       
P-567           	3963123.535       	3697264.570       
P-567           	3963201.239       	3697323.973       
P-568           	3960022.516       	3696174.348       
P-568           	3960125.061       	3696122.401       
P-569           	3967650.324       	3700196.040       
P-569           	3967691.679       	3700247.549       
P-57            	3971863.038       	3705726.685       
P-571           	3965417.255       	3704080.100       
P-572           	3959105.436       	3691072.952       
P-572           	3959159.745       	3691352.933       
P-572           	3959135.339       	3691419.167       
P-572           	3959076.108       	3691523.691       
P-572           	3959034.299       	3691603.826       
P-572           	3959322.140       	3691791.338       
P-572           	3959626.690       	3692053.350       
P-573           	3962325.900       	3699662.423       
P-577           	3965964.405       	3704090.080       
P-578           	3965690.243       	3687061.387       
P-58            	3960317.512       	3700281.901       
P-58            	3960223.755       	3700328.770       
P-58            	3960101.880       	3700313.153       
P-58            	3959986.256       	3700322.520       
P-58            	3959742.507       	3700372.523       
P-58            	3959664.367       	3700422.527       
P-58            	3959314.378       	3700350.638       
P-58            	3958914.385       	3700250.648       
P-58            	3958626.882       	3700178.777       
P-58            	3958326.879       	3700100.638       
P-58            	3958133.133       	3700075.654       
P-58            	3957905.018       	3700088.137       
P-58            	3957620.632       	3700125.640       
P-58            	3957283.126       	3700125.640       
P-580           	3963764.216       	3696564.712       
P-580           	3963999.807       	3696612.474       
P-581           	3966694.087       	3702234.902       
P-584           	3966991.402       	3711334.388       
P-584           	3966979.392       	3711055.885       
P-584           	3966994.711       	3711000.471       
P-585           	3968219.394       	3711509.365       
P-587           	3964913.036       	3704914.805       
P-588           	3966490.818       	3687801.276       
P-589           	3965072.637       	3704087.333       
P-589           	3965080.262       	3704087.137       
P-589           	3965184.483       	3704084.442       
P-590           	3969065.567       	3708403.441       
P-593           	3963387.691       	3695849.594       
P-593           	3963377.057       	3695893.586       
P-594           	3967754.568       	3701966.752       
P-594           	3967805.838       	3702047.533       
P-594           	3967937.932       	3702242.717       
P-594           	3967970.059       	3702293.369       
P-595           	3960596.243       	3693656.420       
P-595           	3960563.362       	3693563.907       
P-599           	3964367.226       	3696034.521       
P-60            	3960502.994       	3694257.699       
P-603           	3964369.461       	3696565.652       
P-604           	3960623.268       	3699670.785       
P-607           	3964605.132       	3699250.629       
P-608           	3965803.854       	3704658.187       
P-608           	3965866.078       	3704659.745       
P-608           	3966026.611       	3704654.142       
P-61            	3960531.182       	3694178.096       
P-61            	3960515.915       	3694100.289       
P-61            	3960491.351       	3694020.924       
P-61            	3960453.691       	3693951.382       
P-610           	3965982.253       	3704076.353       
P-610           	3965984.068       	3704059.584       
P-610           	3966000.072       	3703813.835       
P-610           	3966006.846       	3703718.277       
P-611           	3967456.806       	3712471.635       
P-611           	3967166.012       	3712486.779       
P-612           	3965042.964       	3703935.605       
P-612           	3965033.667       	3703855.767       
P-612           	3965037.467       	3703838.767       
P-612           	3965042.509       	3703816.251       
P-612           	3965024.217       	3703623.418       
P-612           	3965019.993       	3703578.892       
P-612           	3964997.075       	3703473.195       
P-612           	3964987.516       	3703355.627       
P-613           	3965872.101       	3704666.993       
P-613           	3966015.231       	3704662.143       
P-613           	3966034.700       	3704659.395       
P-618           	3965936.567       	3704082.078       
P-622           	3965963.467       	3702040.042       
P-628           	3966539.683       	3705398.376       
P-629           	3958997.234       	3695326.460       
P-63            	3959457.420       	3692554.033       
P-63            	3959429.967       	3692480.726       
P-630           	3963568.877       	3694817.916       
P-630           	3963575.880       	3694879.650       
P-630           	3963596.977       	3694915.927       
P-630           	3963634.970       	3694928.516       
P-630           	3963801.297       	3694963.238       
P-630           	3964104.016       	3695031.306       
P-630           	3964263.183       	3695067.548       
P-630           	3964409.587       	3695098.433       
P-630           	3964434.658       	3695099.974       
P-630           	3964451.922       	3695091.132       
P-630           	3964464.948       	3695061.666       
P-630           	3964460.343       	3694886.443       
P-630           	3964460.378       	3694831.100       
P-630           	3964453.812       	3694812.751       
P-630           	3964434.081       	3694799.305       
P-630           	3964339.659       	3694781.236       
P-630           	3964186.810       	3694750.872       
P-630           	3963934.046       	3694692.014       
P-630           	3963786.127       	3694653.286       
P-630           	3963654.159       	3694624.170       
P-630           	3963610.861       	3694620.056       
P-630           	3963577.596       	3694630.928       
P-630           	3963558.389       	3694654.582       
P-631           	3968328.050       	3701184.132       
P-631           	3968508.468       	3701455.876       
P-634           	3961024.757       	3707130.698       
P-634           	3960837.033       	3706873.467       
P-634           	3960708.943       	3706636.388       
P-634           	3960624.431       	3706373.625       
P-634           	3960588.031       	3706102.037       
P-635           	3963190.454       	3695086.510       
P-635           	3963172.263       	3694887.144       
P-635           	3963156.225       	3694719.923       
P-636           	3963005.952       	3694689.441       
P-636           	3963080.397       	3694707.282       
P-638           	3960551.754       	3693468.715       
P-639           	3960591.638       	3692682.070       
P-639           	3960640.661       	3692666.365       
P-641           	3957758.720       	3704828.244       
P-641           	3957171.214       	3704903.232       
P-641           	3956836.842       	3704931.367       
P-641           	3956677.464       	3704934.501       
P-641           	3956158.713       	3704987.621       
P-641           	3955599.343       	3704981.371       
P-641           	3954946.216       	3704950.119       
P-641           	3954902.480       	3704918.867       
P-642           	3961283.108       	3699764.250       
P-642           	3961294.593       	3699604.595       
P-642           	3961290.129       	3699573.273       
P-642           	3961270.765       	3699550.932       
P-642           	3961226.049       	3699543.474       
P-642           	3961051.962       	3699556.675       
P-643           	3965601.879       	3703186.848       
P-643           	3965657.713       	3703193.133       
P-649           	3938402.466       	3705906.366       
P-65            	3965475.050       	3704652.689       
P-65            	3965429.651       	3704303.698       
P-651           	3958731.442       	3696488.393       
P-651           	3958342.636       	3696524.565       
P-651           	3957805.011       	3696606.889       
P-651           	3957176.886       	3696644.392       
P-651           	3956489.391       	3696713.147       
P-651           	3955867.516       	3696760.016       
P-651           	3955345.631       	3696794.402       
P-651           	3954655.001       	3696850.639       
P-652           	3960545.539       	3692619.303       
P-652           	3960522.971       	3692577.126       
P-652           	3960491.596       	3692554.558       
P-652           	3960441.575       	3692552.579       
P-652           	3960349.377       	3692564.380       
P-652           	3960306.219       	3692565.360       
P-652           	3960263.061       	3692560.441       
P-652           	3960239.530       	3692553.577       
P-653           	3957720.809       	3693287.686       
P-653           	3957892.938       	3693077.529       
P-654           	3957641.274       	3693333.289       
P-654           	3957630.752       	3693313.802       
P-654           	3957653.267       	3693276.299       
P-654           	3957783.774       	3693112.790       
P-654           	3957971.417       	3692882.904       
P-655           	3960669.269       	3692666.523       
P-656           	3937021.225       	3706350.112       
P-656           	3936939.969       	3707106.362       
P-656           	3936918.101       	3707503.238       
P-656           	3936889.965       	3707900.115       
P-656           	3936893.099       	3708053.242       
P-656           	3936927.468       	3708546.991       
P-656           	3936958.720       	3708968.869       
P-656           	3936943.085       	3709096.995       
P-657           	3963753.763       	3692585.460       
P-657           	3963884.382       	3692383.974       
P-658           	3959825.320       	3695608.027       
P-658           	3959780.202       	3695614.803       
P-658           	3959759.650       	3695605.693       
P-658           	3959718.748       	3695587.560       
P-658           	3959609.479       	3695501.402       
P-658           	3959467.172       	3695369.705       
P-658           	3959335.790       	3695258.808       
P-661           	3966016.036       	3703076.599       
P-663           	3965667.513       	3703192.227       
P-663           	3965682.435       	3703190.840       
P-665           	3955614.397       	3688653.574       
P-666           	3959134.708       	3695948.090       
P-666           	3959066.059       	3695886.040       
P-666           	3959020.730       	3695780.834       
P-667           	3965516.457       	3702636.827       
P-667           	3965513.778       	3702512.729       
P-668           	3968573.008       	3703215.876       
P-668           	3968622.661       	3703289.954       
P-668           	3968629.734       	3703315.481       
P-668           	3968629.174       	3703349.867       
P-668           	3968616.866       	3703372.102       
P-668           	3968597.081       	3703392.727       
P-67            	3965487.603       	3702152.269       
P-67            	3965479.829       	3702015.933       
P-67            	3965456.719       	3701799.636       
P-67            	3965447.229       	3701718.923       
P-672           	3965912.440       	3700525.860       
P-674           	3972667.009       	3707269.171       
P-674           	3972655.767       	3707277.799       
P-675           	3963292.124       	3695469.677       
P-675           	3963267.910       	3695310.895       
P-675           	3963237.148       	3695310.405       
P-675           	3963226.626       	3695232.633       
P-675           	3963207.367       	3695232.336       
P-679           	3960413.264       	3691373.891       
P-679           	3960442.800       	3691412.496       
P-679           	3960458.698       	3691476.104       
P-679           	3960467.785       	3691744.172       
P-679           	3960481.406       	3691980.411       
P-679           	3960481.406       	3692037.207       
P-679           	3960456.422       	3692091.728       
P-679           	3960410.988       	3692116.712       
P-679           	3960324.672       	3692132.627       
P-679           	3960097.503       	3692164.422       
P-679           	3960022.533       	3692162.146       
P-679           	3959958.926       	3692139.438       
P-679           	3959908.957       	3692096.280       
P-679           	3959877.761       	3692058.356       
P-68            	3965350.986       	3703176.833       
P-682           	3959285.192       	3692421.145       
P-682           	3959228.528       	3692486.528       
P-682           	3959216.244       	3692500.703       
P-682           	3959194.517       	3692557.622       
P-682           	3959196.162       	3692617.500       
P-682           	3959224.578       	3692792.320       
P-682           	3959253.127       	3692965.512       
P-682           	3959317.057       	3693353.353       
P-682           	3959320.841       	3693398.055       
P-682           	3959320.453       	3693465.301       
P-682           	3959335.563       	3693496.763       
P-682           	3959358.849       	3693504.957       
P-682           	3959387.510       	3693502.803       
P-682           	3959450.329       	3693480.393       
P-684           	3962875.640       	3695413.287       
P-684           	3962875.656       	3695177.640       
P-685           	3964349.218       	3698792.826       
P-685           	3964496.795       	3698526.281       
P-685           	3964518.125       	3698488.006       
P-685           	3964559.737       	3698396.755       
P-685           	3964419.549       	3698178.142       
P-685           	3964222.704       	3697871.176       
P-686           	3966097.607       	3703071.346       
P-686           	3966163.172       	3703064.079       
P-686           	3966208.347       	3703059.073       
P-686           	3966301.385       	3703039.971       
P-686           	3966359.810       	3703018.419       
P-686           	3966362.552       	3703016.824       
P-686           	3966414.646       	3702986.519       
P-687           	3956838.960       	3688868.376       
P-688           	3967479.120       	3701545.147       
P-688           	3967641.632       	3701794.321       
P-69            	3961788.812       	3695249.469       
P-69            	3961293.113       	3695229.507       
P-69            	3960930.440       	3695212.104       
P-690           	3965397.331       	3704074.655       
P-692           	3965776.629       	3702478.745       
P-693           	3970856.728       	3705050.228       
P-694           	3969012.482       	3704998.529       
P-694           	3968998.370       	3704995.342       
P-695           	3964013.172       	3697838.933       
P-695           	3964105.311       	3697781.323       
P-699           	3966766.632       	3705121.664       
P-7             	3967936.927       	3704074.527       
P-7             	3967952.674       	3704051.877       
P-700           	3965453.585       	3686321.507       
P-701           	3964910.687       	3687194.979       
P-701           	3965017.787       	3687006.149       
P-701           	3965221.760       	3686676.615       
P-702           	3967214.768       	3701628.541       
P-702           	3967252.294       	3701689.704       
P-702           	3967415.395       	3701932.027       
P-704           	3967578.548       	3702198.239       
P-704           	3967744.126       	3702433.141       
P-706           	3969267.594       	3702563.870       
P-706           	3969358.269       	3702476.066       
P-706           	3969516.211       	3702402.164       
P-706           	3969708.294       	3702321.574       
P-706           	3969855.240       	3702272.621       
P-706           	3969934.815       	3702250.455       
P-706           	3970055.674       	3702228.973       
P-706           	3970170.441       	3702203.481       
P-706           	3970281.478       	3702167.326       
P-709           	3968424.639       	3704568.724       
P-709           	3968438.860       	3704489.968       
P-71            	3958672.024       	3696878.506       
P-71            	3959128.444       	3696847.927       
P-713           	3964911.653       	3704923.821       
P-714           	3993684.600       	3687390.804       
P-714           	3993253.337       	3687259.562       
P-714           	3992947.101       	3687209.559       
P-714           	3992956.468       	3687031.430       
P-714           	3992565.842       	3686953.309       
P-714           	3992581.494       	3686906.439       
P-714           	3992362.711       	3686809.566       
P-714           	3991915.867       	3686606.436       
P-714           	3991640.847       	3686522.063       
P-714           	3991378.347       	3686465.810       
P-714           	3991137.713       	3686493.945       
P-714           	3990978.336       	3686522.063       
P-714           	3990818.976       	3686518.929       
P-714           	3990684.601       	3686528.314       
P-714           	3990200.218       	3686637.688       
P-714           	3989703.335       	3686747.062       
P-714           	3989615.846       	3686756.446       
P-714           	3989515.839       	3686747.062       
P-714           	3989134.597       	3686625.187       
P-714           	3988781.474       	3686531.430       
P-714           	3988500.222       	3686440.790       
P-714           	3988065.825       	3686322.067       
P-714           	3987547.092       	3686162.690       
P-714           	3987525.224       	3686256.446       
P-716           	3965778.738       	3704666.243       
P-717           	3972697.876       	3704555.833       
P-717           	3972715.454       	3704553.435       
P-718           	3978019.135       	3679384.754       
P-719           	3963926.832       	3697777.349       
P-721           	3964494.887       	3699111.511       
P-722           	3967455.913       	3710449.802       
P-722           	3967469.920       	3710638.436       
P-722           	3967472.019       	3710707.416       
P-722           	3967479.742       	3710852.562       
P-722           	3967484.959       	3710939.753       
P-722           	3967499.876       	3710954.197       
P-722           	3967588.888       	3710953.724       
P-722           	3967819.244       	3710935.656       
P-724           	3939312.876       	3706552.892       
P-724           	3939856.629       	3707159.149       
P-724           	3940159.767       	3707496.638       
P-724           	3940306.643       	3707740.387       
P-724           	3940387.881       	3707959.135       
P-724           	3940537.892       	3708384.147       
P-724           	3940725.387       	3708812.258       
P-724           	3940925.384       	3709134.147       
P-724           	3941175.384       	3709462.269       
P-724           	3941331.627       	3709643.514       
P-724           	3941669.133       	3710043.524       
P-724           	3941762.890       	3710181.016       
P-724           	3941844.128       	3710343.510       
P-724           	3941956.636       	3710562.258       
P-725           	3964021.394       	3692828.299       
P-725           	3964000.542       	3692905.720       
P-725           	3963955.878       	3693009.929       
P-725           	3963943.973       	3693057.587       
P-728           	3961434.151       	3699768.104       
P-728           	3961648.286       	3699683.360       
P-729           	3959837.979       	3692800.653       
P-73            	3965327.893       	3703613.366       
P-733           	3965973.264       	3702407.172       
P-733           	3965993.523       	3702825.719       
P-734           	3970982.394       	3704527.878       
P-735           	3968135.637       	3702546.051       
P-735           	3968297.048       	3702794.176       
P-736           	3968364.205       	3702901.446       
P-739           	3968361.141       	3704711.552       
P-739           	3968343.012       	3704787.279       
P-74            	3965577.343       	3702611.291       
P-740           	3966135.670       	3702347.644       
P-740           	3966337.680       	3702306.062       
P-741           	3972326.981       	3704970.533       
P-742           	3968464.212       	3702707.420       
P-742           	3968539.882       	3702661.986       
P-742           	3968575.511       	3702655.351       
P-742           	3968596.364       	3702671.231       
P-742           	3968612.949       	3702708.477       
P-744           	3938325.377       	3705490.388       
P-744           	3938244.139       	3705331.010       
P-744           	3937937.885       	3704731.021       
P-744           	3937997.256       	3704702.885       
P-744           	3937794.143       	3704318.510       
P-744           	3937766.007       	3704293.508       
P-744           	3937644.132       	3703990.388       
P-744           	3937459.753       	3703327.912       
P-744           	3937297.259       	3702959.136       
P-744           	3937510.026       	3702661.287       
P-744           	3937532.405       	3702504.632       
P-744           	3937353.370       	3702370.356       
P-744           	3937151.957       	3702303.218       
P-745           	3961386.984       	3707424.311       
P-745           	3961670.162       	3707560.770       
P-745           	3961889.540       	3707638.647       
P-745           	3962104.331       	3707704.443       
P-745           	3962341.410       	3707725.050       
P-747           	3972074.355       	3703539.078       
P-748           	3971933.536       	3705677.708       
P-751           	3962041.551       	3699330.740       
P-751           	3962080.695       	3699193.712       
P-751           	3962112.717       	3698996.615       
P-751           	3962131.737       	3698903.394       
P-751           	3962129.350       	3698765.986       
P-753           	3970159.007       	3704357.441       
P-755           	3964125.621       	3692673.421       
P-755           	3964170.284       	3692655.598       
P-756           	3960214.038       	3692468.260       
P-756           	3960201.257       	3692446.672       
P-756           	3960167.939       	3692430.004       
P-756           	3960142.429       	3692435.887       
P-756           	3960123.801       	3692462.377       
P-756           	3960122.820       	3692486.889       
P-756           	3960130.249       	3692509.192       
P-756           	3960130.664       	3692510.437       
P-756           	3960142.429       	3692522.203       
P-756           	3960164.997       	3692536.910       
P-758           	3965634.375       	3703000.315       
P-758           	3965645.965       	3703112.876       
P-759           	3936608.713       	3705928.216       
P-759           	3935886.849       	3705965.736       
P-759           	3935146.216       	3706015.740       
P-759           	3934374.349       	3706065.743       
P-759           	3934058.710       	3706078.244       
P-759           	3933155.601       	3706134.480       
P-760           	3967381.135       	3704919.847       
P-763           	3971259.371       	3703173.159       
P-763           	3971433.326       	3703112.420       
P-764           	3958045.517       	3698011.540       
P-765           	3966614.940       	3702850.637       
P-765           	3966796.315       	3702725.454       
P-766           	3965619.475       	3702748.634       
P-767           	3957055.011       	3691966.229       
P-767           	3957065.464       	3691663.074       
P-769           	3968747.705       	3704905.875       
P-77            	3958305.498       	3698432.560       
P-771           	3968413.158       	3704456.509       
P-772           	3960554.643       	3703077.176       
P-772           	3960685.885       	3702725.629       
P-772           	3960837.383       	3702228.325       
P-772           	3960930.352       	3702024.792       
P-773           	3962031.964       	3701833.643       
P-773           	3962005.522       	3701912.786       
P-773           	3961979.955       	3701905.606       
P-773           	3961931.420       	3702086.421       
P-774           	3962974.280       	3697111.739       
P-774           	3963008.368       	3696886.618       
P-775           	3957543.088       	3693511.575       
P-776           	3962107.115       	3702126.760       
P-779           	3959756.758       	3691948.616       
P-779           	3959702.238       	3691894.113       
P-779           	3959670.425       	3691839.574       
P-779           	3959670.425       	3691773.691       
P-779           	3959720.411       	3691696.462       
P-779           	3959809.003       	3691610.147       
P-779           	3959905.059       	3691489.088       
P-779           	3959995.273       	3691373.891       
P-779           	3960052.069       	3691303.473       
P-78            	3962360.774       	3701021.010       
P-78            	3962267.578       	3700998.722       
P-780           	3962077.754       	3704595.490       
P-780           	3962080.502       	3704666.801       
P-780           	3962066.776       	3704732.649       
P-780           	3962055.798       	3704834.144       
P-780           	3962083.234       	3704995.990       
P-781           	3962144.828       	3704418.464       
P-782           	3961858.390       	3694561.381       
P-782           	3961933.941       	3694614.996       
P-782           	3962023.268       	3694632.872       
P-782           	3962273.312       	3694635.831       
P-783           	3962667.778       	3694625.530       
P-783           	3962793.649       	3694629.878       
P-785           	3954824.341       	3704937.618       
P-785           	3954124.345       	3704925.117       
P-785           	3953577.475       	3704937.618       
P-785           	3952949.350       	3704975.121       
P-785           	3951958.717       	3705015.740       
P-785           	3951096.227       	3705068.860       
P-785           	3950005.587       	3705125.114       
P-785           	3949124.346       	3705140.748       
P-785           	3948402.464       	3705143.865       
P-785           	3947946.217       	3705190.734       
P-785           	3947286.840       	3705259.489       
P-785           	3947146.214       	3705281.357       
P-785           	3945958.718       	3705443.868       
P-786           	3972341.318       	3704054.528       
P-787           	3972839.815       	3706343.178       
P-787           	3973190.522       	3706111.317       
P-787           	3972904.630       	3705506.232       
P-787           	3972877.527       	3705411.460       
P-79            	3964767.437       	3705083.549       
P-79            	3964785.051       	3705079.417       
P-79            	3964765.827       	3704990.948       
P-79            	3964855.906       	3704956.597       
P-79            	3964911.653       	3704923.821       
P-79            	3964912.913       	3704923.069       
P-79            	3964967.434       	3704872.995       
P-79            	3965084.949       	3704766.597       
P-79            	3965182.697       	3704678.111       
P-79            	3965203.882       	3704664.209       
P-79            	3965221.653       	3704652.566       
P-79            	3965475.050       	3704652.689       
P-791           	3972525.420       	3704759.209       
P-795           	3970825.756       	3700735.714       
P-795           	3970971.459       	3700639.174       
P-795           	3971043.313       	3700618.234       
P-796           	3971694.829       	3705986.816       
P-796           	3971764.022       	3706058.267       
P-796           	3971869.960       	3706234.652       
P-797           	3970576.893       	3700914.421       
P-797           	3970629.962       	3700875.639       
P-798           	3945374.346       	3705637.614       
P-798           	3944530.590       	3705753.239       
P-798           	3944071.227       	3705809.493       
P-798           	3943539.975       	3705809.493       
P-798           	3942668.100       	3705737.621       
P-798           	3942130.597       	3705693.868       
P-798           	3941589.961       	3705718.870       
P-798           	3940721.220       	3705781.357       
P-798           	3939880.598       	3705818.842       
P-798           	3939155.600       	3705859.496       
P-8             	3961677.411       	3697625.311       
P-8             	3961417.840       	3697428.176       
P-80            	3961183.024       	3696366.368       
P-80            	3961458.067       	3696595.316       
P-80            	3961443.741       	3696618.632       
P-80            	3961424.417       	3696650.082       
P-80            	3961641.694       	3696834.899       
P-80            	3961801.509       	3696962.429       
P-80            	3961864.414       	3697012.516       
P-800           	3971591.640       	3704614.806       
P-801           	3969783.065       	3701472.729       
P-802           	3972593.597       	3704211.359       
P-805           	3971639.614       	3703794.188       
P-805           	3971961.655       	3703549.496       
P-805           	3972017.382       	3703628.043       
P-805           	3972032.756       	3703649.713       
P-806           	3968077.856       	3700652.871       
P-808           	3970253.379       	3701360.113       
P-815           	3960232.929       	3704352.405       
P-815           	3960242.927       	3704589.712       
P-815           	3960190.087       	3704593.231       
P-815           	3959793.280       	3704619.686       
P-815           	3959016.388       	3704674.644       
P-815           	3958520.735       	3704712.185       
P-817           	3967196.721       	3710362.209       
P-817           	3967043.127       	3710370.027       
P-819           	3963143.952       	3694550.636       
P-819           	3963134.147       	3694395.285       
P-819           	3963144.127       	3694306.623       
P-821           	3963412.497       	3693201.254       
P-822           	3955744.783       	3690223.915       
P-822           	3955671.616       	3690157.699       
P-822           	3955574.026       	3690098.469       
P-822           	3955521.000       	3690019.509       
P-822           	3955514.795       	3689885.902       
P-822           	3955455.547       	3689725.596       
P-822           	3955486.811       	3689561.344       
P-825           	3958388.146       	3694210.278       
P-826           	3957692.478       	3693699.321       
P-826           	3957632.818       	3693637.494       
P-827           	3962071.346       	3696775.056       
P-827           	3962043.916       	3696811.345       
P-827           	3962003.071       	3696865.383       
P-828           	3956578.561       	3692881.167       
P-828           	3956505.603       	3692993.927       
P-829           	3962283.162       	3697071.105       
P-83            	3965362.017       	3703555.641       
P-830           	3960851.832       	3696019.816       
P-832           	3963478.714       	3697949.219       
P-837           	3962979.235       	3698358.324       
P-837           	3963055.115       	3698253.888       
P-837           	3963172.508       	3698098.327       
P-841           	3963292.754       	3698194.360       
P-842           	3964179.211       	3698855.567       
P-843           	3965340.166       	3686488.500       
P-845           	3967529.896       	3707579.213       
P-845           	3967489.634       	3707732.123       
P-845           	3967421.982       	3707913.806       
P-845           	3967360.908       	3708062.650       
P-846           	3968703.107       	3704787.297       
P-848           	3964982.327       	3703506.175       
P-848           	3964986.576       	3703560.457       
P-848           	3965016.614       	3703590.307       
P-849           	3972902.652       	3707197.755       
P-849           	3973043.278       	3707372.749       
P-849           	3973255.775       	3707635.250       
P-849           	3973624.516       	3708100.881       
P-849           	3973899.518       	3708429.003       
P-849           	3974046.394       	3708632.133       
P-849           	3974452.655       	3709132.133       
P-849           	3974383.900       	3709172.752       
P-849           	3974549.528       	3709375.883       
P-849           	3974883.900       	3709800.878       
P-849           	3975146.401       	3710132.133       
P-849           	3975299.528       	3710335.264       
P-849           	3975552.662       	3710607.131       
P-849           	3976243.274       	3711488.390       
P-849           	3976690.171       	3712041.510       
P-849           	3977187.037       	3712669.635       
P-849           	3978171.402       	3713925.885       
P-849           	3978702.654       	3714588.379       
P-849           	3979283.892       	3715244.640       
P-849           	3979746.407       	3715747.756       
P-849           	3979880.973       	3715895.063       
P-849           	3980028.563       	3716046.488       
P-849           	3980136.147       	3716171.188       
P-85            	3962536.038       	3701059.051       
P-851           	3971500.129       	3700283.868       
P-852           	3971499.634       	3700284.853       
P-853           	3968281.605       	3702301.080       
P-853           	3968532.408       	3702170.874       
P-854           	3971500.953       	3700285.342       
P-857           	3963681.272       	3696252.472       
P-858           	3970463.351       	3704660.229       
P-86            	3959942.590       	3693426.030       
P-863           	3956875.489       	3691449.635       
P-863           	3956887.738       	3691307.640       
P-863           	3956845.928       	3691175.225       
P-864           	3964059.342       	3695763.116       
P-864           	3964293.490       	3695805.170       
P-864           	3964346.872       	3695691.542       
P-865           	3982557.510       	3701875.184       
P-865           	3982726.254       	3701315.814       
P-865           	3982857.514       	3700850.200       
P-865           	3982945.002       	3700540.812       
P-865           	3982988.755       	3700506.443       
P-865           	3983091.879       	3700187.689       
P-865           	3983291.893       	3699503.310       
P-865           	3983426.268       	3699037.696       
P-865           	3983526.258       	3698693.939       
P-865           	3983732.505       	3697987.693       
P-865           	3983807.510       	3697737.710       
P-865           	3984035.642       	3697506.444       
P-865           	3984235.638       	3697378.319       
P-865           	3984579.377       	3697268.945       
P-865           	3985388.783       	3697031.446       
P-865           	3985682.518       	3696934.555       
P-865           	3986688.768       	3696625.185       
P-865           	3987635.631       	3696350.183       
P-865           	3988360.629       	3696137.686       
P-866           	3955549.333       	3689140.771       
P-868           	3966025.536       	3703582.907       
P-868           	3966045.722       	3703405.427       
P-87            	3968618.844       	3703010.890       
P-87            	3968748.720       	3702913.684       
P-87            	3968865.080       	3702824.060       
P-87            	3968949.907       	3702752.906       
P-87            	3969011.904       	3702713.723       
P-870           	3955852.426       	3689517.978       
P-870           	3955917.229       	3689487.377       
P-870           	3955973.032       	3689382.971       
P-870           	3956012.894       	3689231.629       
P-870           	3956050.436       	3689017.554       
P-870           	3956064.966       	3688919.473       
P-870           	3956045.035       	3688878.947       
P-870           	3956001.169       	3688789.754       
P-870           	3955904.627       	3688730.240       
P-871           	3959545.131       	3693057.803       
P-871           	3959529.326       	3692937.760       
P-871           	3959467.944       	3692603.954       
P-872           	3955647.683       	3688446.918       
P-872           	3955627.545       	3688169.466       
P-875           	3960997.189       	3693574.850       
P-875           	3961087.548       	3693592.046       
P-875           	3961320.757       	3693574.838       
P-875           	3961656.348       	3693537.294       
P-885           	3963622.574       	3692809.460       
P-885           	3963565.125       	3692944.757       
P-885           	3963501.522       	3693098.521       
P-885           	3963457.052       	3693079.910       
P-886           	3988823.126       	3696187.689       
P-886           	3988951.251       	3696115.818       
P-886           	3989116.879       	3695931.439       
P-886           	3989210.636       	3695765.811       
P-886           	3989270.006       	3695550.180       
P-886           	3989298.142       	3695334.566       
P-886           	3989320.010       	3695075.182       
P-886           	3989338.761       	3694875.185       
P-886           	3989435.634       	3694706.441       
P-886           	3989566.876       	3694618.935       
P-886           	3989857.530       	3694547.064       
P-886           	3990020.006       	3694478.309       
P-886           	3990154.382       	3694372.069       
P-886           	3990363.762       	3694215.808       
P-886           	3990582.510       	3694053.314       
P-886           	3990898.131       	3693906.438       
P-886           	3991301.258       	3693700.191       
P-886           	3992201.268       	3693284.563       
P-886           	3992410.632       	3693181.440       
P-886           	3992476.252       	3693131.436       
P-886           	3992510.639       	3693047.064       
P-886           	3992657.515       	3692528.313       
P-886           	3992848.127       	3691878.320       
P-886           	3992966.885       	3691572.066       
P-886           	3993038.757       	3691397.071       
P-886           	3993163.765       	3691203.308       
P-886           	3993460.635       	3690843.934       
P-886           	3993710.635       	3690540.814       
P-886           	3994004.388       	3690181.458       
P-886           	3994129.379       	3689934.557       
P-886           	3994235.636       	3689628.320       
P-886           	3994335.643       	3689328.317       
P-886           	3994401.264       	3689134.571       
P-886           	3994513.755       	3688743.945       
P-886           	3994566.892       	3688625.186       
P-886           	3994776.255       	3688468.943       
P-888           	3969278.326       	3693926.327       
P-888           	3969618.949       	3693357.572       
P-888           	3969890.799       	3692916.943       
P-888           	3970081.446       	3692635.691       
P-888           	3970243.940       	3692448.195       
P-888           	3970409.568       	3692154.442       
P-888           	3970681.436       	3691663.827       
P-888           	3971225.189       	3690716.947       
P-888           	3971715.822       	3689835.705       
P-888           	3972387.700       	3688651.344       
P-888           	3972650.201       	3688201.330       
P-888           	3972797.077       	3688023.201       
P-888           	3973059.578       	3687710.697       
P-888           	3973556.444       	3687060.704       
P-888           	3973775.192       	3686745.066       
P-89            	3957219.956       	3690787.989       
P-89            	3957277.426       	3690790.335       
P-891           	3974231.438       	3685970.064       
P-891           	3974387.699       	3685651.327       
P-891           	3974668.951       	3685104.423       
P-891           	3975140.816       	3684170.079       
P-891           	3975259.574       	3683970.065       
P-891           	3975397.066       	3683735.682       
P-891           	3975534.576       	3683510.701       
P-891           	3975587.696       	3683538.820       
P-891           	3975828.311       	3683129.442       
P-891           	3976262.690       	3682416.945       
P-891           	3976734.572       	3681632.576       
P-891           	3977137.699       	3680973.199       
P-891           	3977365.813       	3680598.191       
P-891           	3977518.940       	3680345.057       
P-891           	3977590.812       	3680201.314       
P-891           	3977631.448       	3680032.570       
P-891           	3977693.953       	3679826.323       
P-891           	3977790.826       	3679635.693       
P-891           	3977903.569       	3679479.211       
P-892           	3987168.966       	3686115.820       
P-892           	3987059.593       	3686022.064       
P-892           	3986925.217       	3685872.071       
P-892           	3986772.090       	3685656.439       
P-892           	3986556.476       	3685378.321       
P-892           	3986372.097       	3685159.556       
P-892           	3986178.351       	3684934.558       
P-892           	3986015.840       	3684737.695       
P-892           	3985884.598       	3684622.071       
P-892           	3985572.094       	3684400.189       
P-892           	3985312.709       	3684237.695       
P-892           	3985156.466       	3684137.688       
P-892           	3984828.344       	3684003.313       
P-892           	3984590.845       	3683909.574       
P-892           	3984034.591       	3683693.942       
P-892           	3983375.214       	3683403.306       
P-892           	3982784.592       	3683165.807       
P-892           	3982237.722       	3682937.692       
P-892           	3981790.842       	3682740.812       
P-892           	3981478.320       	3682593.936       
P-892           	3980981.455       	3682362.687       
P-892           	3980878.349       	3682290.816       
P-892           	3980753.340       	3682203.310       
P-892           	3980275.225       	3681781.431       
P-892           	3980043.959       	3681547.066       
P-892           	3979897.100       	3681422.058       
P-892           	3979612.714       	3681168.941       
P-892           	3979453.337       	3681034.566       
P-892           	3979134.599       	3680681.442       
P-892           	3978706.471       	3680222.061       
P-892           	3978362.714       	3679862.687       
P-892           	3978027.699       	3679507.372       
P-893           	3942216.003       	3710924.766       
P-893           	3942994.138       	3711909.148       
P-893           	3943831.627       	3712977.885       
P-893           	3944516.006       	3713846.644       
P-893           	3944672.267       	3714081.009       
P-893           	3944716.002       	3714193.516       
P-893           	3944834.760       	3714556.024       
P-894           	3936727.472       	3709553.242       
P-894           	3936061.844       	3710928.233       
P-894           	3935921.218       	3711187.617       
P-894           	3935864.964       	3711162.615       
P-894           	3935732.313       	3711429.913       
P-894           	3935655.601       	3711584.493       
P-894           	3935605.597       	3711662.615       
P-894           	3935411.851       	3711796.991       
P-894           	3935096.213       	3712059.491       
P-894           	3934839.962       	3712243.871       
P-894           	3934752.474       	3712290.740       
P-894           	3934408.717       	3712431.366       
P-894           	3933302.460       	3712831.359       
P-894           	3933043.093       	3712937.617       
P-894           	3932958.721       	3712978.236       
P-894           	3932933.719       	3713037.606       
P-894           	3932943.086       	3713309.491       
P-894           	3932958.721       	3713943.884       
P-894           	3932955.587       	3714243.870       
P-894           	3932930.585       	3714300.107       
P-894           	3932427.452       	3714718.851       
P-9             	3962439.067       	3696812.723       
P-90            	3958282.653       	3697231.565       
P-904           	3965657.452       	3687985.050       
P-906           	3967977.108       	3699306.075       
P-906           	3967977.108       	3699310.482       
P-908           	3957781.897       	3690841.477       
P-908           	3958184.029       	3690875.537       
P-908           	3958306.436       	3690885.989       
P-908           	3958417.484       	3690882.505       
P-908           	3958664.188       	3690819.504       
P-909           	3971501.409       	3700284.445       
P-91            	3966579.258       	3701934.852       
P-914           	3960403.740       	3704210.501       
P-914           	3960219.816       	3704321.608       
P-916           	3960333.689       	3692921.373       
P-916           	3960306.219       	3692920.392       
P-916           	3960281.707       	3692912.548       
P-916           	3960268.961       	3692891.959       
P-916           	3960263.061       	3692871.352       
P-916           	3960265.022       	3692842.918       
P-916           	3960280.727       	3692823.292       
P-916           	3960308.180       	3692819.370       
P-916           	3960339.572       	3692817.409       
P-916           	3960397.437       	3692821.331       
P-916           	3960437.653       	3692816.428       
P-916           	3960466.086       	3692813.487       
P-916           	3960488.655       	3692789.956       
P-916           	3960514.147       	3692737.974       
P-916           	3960541.617       	3692701.679       
P-917           	3960612.210       	3692722.287       
P-917           	3960577.894       	3692738.937       
P-917           	3960562.207       	3692765.427       
P-917           	3960547.500       	3692821.331       
P-917           	3960540.636       	3692857.625       
P-917           	3960527.873       	3692883.135       
P-917           	3960507.283       	3692894.900       
P-917           	3960464.126       	3692905.685       
P-917           	3960413.107       	3692911.568       
P-917           	3960373.906       	3692917.451       
P-92            	3971285.505       	3703469.360       
P-92            	3971209.010       	3703497.620       
P-921           	3960658.222       	3692410.605       
P-925           	3960542.169       	3699282.387       
P-925           	3960566.093       	3699274.635       
P-925           	3960616.990       	3699388.036       
P-926           	3959643.571       	3692220.881       
P-926           	3959707.192       	3692299.971       
P-926           	3959766.545       	3692404.005       
P-926           	3959795.959       	3692536.997       
P-926           	3959805.920       	3692599.478       
P-927           	3959482.930       	3692262.976       
P-93            	3972795.887       	3704401.533       
P-93            	3972746.124       	3704320.592       
P-93            	3972689.221       	3704151.249       
P-93            	3972667.796       	3704027.400       
P-93            	3972548.233       	3703854.524       
P-93            	3972362.348       	3703793.700       
P-93            	3972175.115       	3703554.380       
P-930           	3960137.095       	3691635.229       
P-932           	3960131.574       	3691273.936       
P-932           	3960262.546       	3691322.078       
P-933           	3960097.503       	3691064.940       
P-933           	3960058.880       	3691135.359       
P-934           	3960253.202       	3690932.394       
P-934           	3960426.886       	3691036.911       
P-934           	3960518.382       	3691049.364       
P-935           	3960056.604       	3691192.155       
P-937           	3963917.168       	3692682.385       
P-937           	3963982.684       	3692715.126       
P-938           	3964226.871       	3692679.391       
P-938           	3964322.151       	3692724.072       
P-938           	3964375.761       	3692744.907       
P-94            	3963697.858       	3698478.946       
P-942           	3962726.137       	3693681.926       
P-942           	3962759.797       	3693453.222       
P-942           	3962711.738       	3693447.252       
P-943           	3963703.060       	3695464.302       
P-943           	3963854.598       	3695486.987       
P-943           	3963945.163       	3695500.544       
P-943           	3964313.313       	3695589.470       
P-944           	3963525.386       	3695589.714       
P-947           	3960344.054       	3699348.012       
P-95            	3964831.197       	3705340.066       
P-95            	3964833.391       	3705339.502       
P-950           	3963202.114       	3696444.308       
P-950           	3963359.093       	3696624.117       
P-950           	3963455.196       	3696712.254       
P-950           	3963620.613       	3696877.881       
P-950           	3963851.915       	3697121.613       
P-950           	3963965.490       	3697267.982       
P-950           	3964069.857       	3697392.396       
P-952           	3963164.612       	3696183.610       
P-956           	3963914.254       	3696947.526       
P-957           	3963072.781       	3696515.058       
P-957           	3963087.015       	3696412.635       
P-957           	3963104.839       	3696397.386       
P-958           	3960422.974       	3699552.073       
P-959           	3962969.885       	3697163.020       
P-961           	3962805.028       	3697810.720       
P-961           	3962805.186       	3697812.562       
P-961           	3962805.757       	3697814.070       
P-962           	3962789.778       	3697853.282       
P-962           	3962713.915       	3698011.521       
P-965           	3962808.362       	3697812.642       
P-966           	3962876.181       	3697687.759       
P-966           	3962917.314       	3697536.879       
P-967           	3963363.396       	3697864.520       
P-972           	3963125.586       	3698060.860       
P-972           	3962991.455       	3697962.796       
P-972           	3962829.738       	3697833.777       
P-972           	3962813.115       	3697822.818       
P-979           	3963602.055       	3697748.565       
P-981           	3963602.055       	3697748.565       
P-981           	3963630.541       	3697771.081       
P-981           	3963797.429       	3697895.722       
P-981           	3963937.162       	3698002.417       
P-981           	3964110.459       	3698139.384       
P-982           	3963906.978       	3697967.471       
P-982           	3963927.425       	3697939.183       
P-985           	3964344.959       	3697503.946       
P-988           	3964461.358       	3698067.548       
P-99            	3965025.158       	3702999.079       
P-990           	3964806.428       	3697914.806       
P-990           	3965128.860       	3698189.563       
P-990           	3965250.355       	3698422.782       
P-991           	3960532.075       	3700216.332       
P-991           	3960538.938       	3700232.125       
P-993           	3963302.324       	3698175.982       
P-994           	3963193.584       	3698110.191       
P-995           	3964299.828       	3699662.039       
P-997           	3964305.761       	3699622.390       

[LABELS]
;X-Coord             Y-Coord             Label & Anchor Node

[BACKDROP]
  DIMENSIONS  	3923762.022       	3676962.150       	4006077.243       	3729890.850       
 UNITS          	None
 FILE           	
 OFFSET         	0.00            	0.00            

[END]
