[TITLE]


[JUNCTIONS]
;ID              	Elev        	Demand      	Pattern         
 I-AV-1          	772         	0           	                	;
 I-AV-10         	808         	0           	                	;
 I-AV-11         	854         	0.4         	11              	;
 I-AV-12         	769         	0           	                	;
 I-AV-13         	849         	0.1         	11              	;
 I-AV-14         	834         	0.1         	11              	;
 I-AV-15         	807         	0.2         	11              	;
 I-AV-16         	722         	0.7         	11              	;
 I-AV-17         	698         	0.2         	11              	;
 I-AV-18         	774         	0           	                	;
 I-AV-19         	774         	0.2         	11              	;
 I-AV-2          	798         	0.1         	11              	;
 I-AV-20         	843         	0.4         	11              	;
 I-AV-21         	843         	0.3         	11              	;
 I-AV-22         	843         	0           	                	;
 I-AV-23         	772         	0           	                	;
 I-AV-24         	738         	0.1         	11              	;
 I-AV-25         	839         	0.1         	11              	;
 I-AV-26         	806         	0.3         	11              	;
 I-AV-27         	832         	0.6         	11              	;
 I-AV-28         	849.6       	0           	                	;
 I-AV-29         	814         	0.1         	11              	;
 I-AV-3          	696.1       	0.2         	11              	;
 I-AV-30         	782         	0.2         	11              	;
 I-AV-31         	830         	0.1         	11              	;
 I-AV-32         	765         	0.1         	11              	;
 I-AV-33         	792         	0.2         	11              	;
 I-AV-34         	774         	0           	                	;
 I-AV-35         	806         	0.1         	11              	;
 I-AV-36         	726         	0.2         	11              	;
 I-AV-37         	774.8       	0.7         	11              	;
 I-AV-38         	782.2       	0.6         	11              	;
 I-AV-39         	772         	0.1         	11              	;
 I-AV-4          	661         	0.1         	11              	;
 I-AV-40         	736         	0.2         	11              	;
 I-AV-41         	736         	0           	                	;
 I-AV-42         	802         	0.2         	11              	;
 I-AV-43         	812         	0.1         	11              	;
 I-AV-5          	827         	0.1         	11              	;
 I-AV-6          	839         	0.1         	11              	;
 I-AV-7          	823         	0.2         	11              	;
 I-AV-8          	809         	0.4         	11              	;
 I-AV-9          	808         	0           	                	;
 J-1             	842         	0.3         	11              	;
 J-10            	709         	0.7         	11              	;
 J-100           	848         	0.1         	11              	;
 J-101           	808         	0.3         	11              	;
 J-102           	678         	0.3         	11              	;
 J-103           	786         	0           	                	;
 J-104           	755         	0.5         	11              	;
 J-105           	765.2       	0.7         	11              	;
 J-106           	716.7       	1.4         	11              	;
 J-107           	811         	0.4         	11              	;
 J-108           	716.2       	0.1         	11              	;
 J-109           	556.3       	0.3         	11              	;
 J-11            	795         	0.6         	11              	;
 J-110           	803         	0.2         	11              	;
 J-111           	756.1       	0.9         	11              	;
 J-112           	585         	0.3         	11              	;
 J-113           	840         	0.3         	11              	;
 J-114           	785         	0.3         	11              	;
 J-115           	763.2       	0.6         	11              	;
 J-116           	850         	0.4         	11              	;
 J-117           	781.3       	0.3         	11              	;
 J-118           	794         	0.2         	11              	;
 J-119           	782         	0.1         	11              	;
 J-12            	700.9       	0.4         	11              	;
 J-13            	761         	0.4         	11              	;
 J-14            	782         	0.4         	11              	;
 J-15            	757         	0.3         	11              	;
 J-16            	834         	0.6         	11              	;
 J-17            	740         	0.2         	11              	;
 J-18            	764         	0.1         	11              	;
 J-19            	786         	0.6         	11              	;
 J-2             	824         	1.1         	11              	;
 J-20            	769         	0.2         	11              	;
 J-21            	734         	0.1         	11              	;
 J-22            	830         	0.1         	11              	;
 J-23            	829         	0.2         	11              	;
 J-24            	756         	0.1         	11              	;
 J-25            	826         	1.3         	11              	;
 J-26            	657.9       	0.4         	11              	;
 J-28            	847         	0.2         	11              	;
 J-29            	799         	0.4         	11              	;
 J-3             	834         	0           	                	;
 J-30            	843         	1.4         	11              	;
 J-31            	837         	0.9         	11              	;
 J-32            	772         	1.1         	11              	;
 J-33            	765         	0.1         	11              	;
 J-34            	777         	2.9         	11              	;
 J-35            	744.5       	1.5         	11              	;
 J-36            	777         	0.3         	11              	;
 J-37            	807         	1.7         	11              	;
 J-38            	734.5       	0.2         	11              	;
 J-39            	804.3       	1.8         	11              	;
 J-4             	835         	0.2         	11              	;
 J-40            	792.8       	0.3         	11              	;
 J-41            	841         	0           	                	;
 J-42            	787         	0.2         	11              	;
 J-43            	787         	0.1         	11              	;
 J-44            	781         	0.1         	11              	;
 J-45            	802         	0.7         	11              	;
 J-46            	722         	0.7         	11              	;
 J-47            	796         	0.3         	11              	;
 J-48            	802         	0.1         	11              	;
 J-49            	833         	0.6         	11              	;
 J-5             	813         	2           	11              	;
 J-50            	850.4       	0.5         	11              	;
 J-51            	806         	0.5         	11              	;
 J-52            	706         	0.5         	11              	;
 J-53            	810         	1.1         	11              	;
 J-54            	630         	0.7         	11              	;
 J-56            	769         	0           	                	;
 J-57            	715.8       	0.6         	11              	;
 J-58            	806.1       	1.5         	11              	;
 J-59            	741.7       	0.7         	11              	;
 J-6             	765         	0.6         	11              	;
 J-60            	769         	0.2         	11              	;
 J-61            	704         	0.1         	11              	;
 J-62            	775         	0.1         	11              	;
 J-63            	761         	0           	                	;
 J-64            	790         	0.1         	11              	;
 J-65            	792         	0.2         	11              	;
 J-66            	816         	0           	                	;
 J-67            	797         	0.1         	11              	;
 J-68            	832         	0.1         	11              	;
 J-69            	834         	0.1         	11              	;
 J-7             	800         	1.6         	11              	;
 J-71            	721         	1.1         	11              	;
 J-72            	772         	0.1         	11              	;
 J-73            	772         	0.2         	11              	;
 J-74            	736.9       	0.8         	11              	;
 J-75            	842         	0.3         	11              	;
 J-76            	798         	0           	                	;
 J-77            	805         	0.3         	11              	;
 J-78            	795         	0.5         	11              	;
 J-79            	733         	0.2         	11              	;
 J-8             	799         	0.3         	11              	;
 J-80            	793         	0.1         	11              	;
 J-81            	806         	0           	                	;
 J-82            	789         	0           	                	;
 J-83            	787         	0.2         	11              	;
 J-84            	792         	0.1         	11              	;
 J-85            	774.9       	0.5         	11              	;
 J-86            	799         	0.1         	11              	;
 J-87            	840         	0.9         	11              	;
 J-88            	824.5       	0.1         	11              	;
 J-89            	836         	0.6         	11              	;
 J-9             	770         	1.2         	11              	;
 J-90            	828         	0.1         	11              	;
 J-91            	848.6       	0.5         	11              	;
 J-92            	805.4       	0.2         	11              	;
 J-93            	720.2       	0.6         	11              	;
 J-94            	693.8       	0.1         	11              	;
 J-95            	802         	1           	11              	;
 J-96            	841         	0.1         	11              	;
 J-97            	764         	0.3         	11              	;
 J-98            	795         	0.1         	11              	;
 J-99            	855         	0.8         	11              	;
 O-AV-1          	772         	0.3         	11              	;
 O-AV-10         	808         	0.3         	11              	;
 O-AV-11         	854         	0.1         	11              	;
 O-AV-12         	769         	0           	                	;
 O-AV-13         	849         	0.3         	11              	;
 O-AV-14         	834         	0.1         	11              	;
 O-AV-15         	807         	0.9         	11              	;
 O-AV-16         	722         	0.2         	11              	;
 O-AV-17         	698         	0.2         	11              	;
 O-AV-18         	774         	0           	                	;
 O-AV-19         	774         	0           	                	;
 O-AV-2          	798         	0.1         	11              	;
 O-AV-20         	843         	0           	                	;
 O-AV-21         	843         	0           	                	;
 O-AV-22         	843         	0.1         	11              	;
 O-AV-23         	772         	0           	                	;
 O-AV-24         	738         	0.5         	11              	;
 O-AV-25         	839         	0           	                	;
 O-AV-26         	806         	0           	                	;
 O-AV-27         	832         	0.1         	11              	;
 O-AV-28         	849.6       	0.1         	11              	;
 O-AV-29         	814         	0.2         	11              	;
 O-AV-3          	696.1       	0.1         	11              	;
 O-AV-30         	782         	0           	                	;
 O-AV-31         	830         	0           	                	;
 O-AV-32         	765         	0           	                	;
 O-AV-33         	792         	0.4         	11              	;
 O-AV-34         	774         	0           	                	;
 O-AV-35         	806         	0           	                	;
 O-AV-36         	726         	0.6         	11              	;
 O-AV-37         	774.8       	0.6         	11              	;
 O-AV-38         	782.2       	0.3         	11              	;
 O-AV-39         	772         	0           	                	;
 O-AV-4          	661         	0           	                	;
 O-AV-40         	736         	0           	                	;
 O-AV-41         	736         	0           	                	;
 O-AV-42         	802         	0           	                	;
 O-AV-43         	812         	0.3         	11              	;
 O-AV-5          	827         	0.1         	11              	;
 O-AV-6          	839         	0           	                	;
 O-AV-7          	823         	0           	                	;
 O-AV-8          	809         	0           	                	;
 O-AV-9          	808         	0           	                	;
 O-V-~@AV-1      	772         	0           	                	;
 O-V-~@AV-10     	808         	0           	                	;
 O-V-~@AV-11     	854         	0           	                	;
 O-V-~@AV-12     	769         	0           	                	;
 O-V-~@AV-13     	849         	0           	                	;
 O-V-~@AV-14     	834         	0           	                	;
 O-V-~@AV-15     	807         	0           	                	;
 O-V-~@AV-16     	722         	0           	                	;
 O-V-~@AV-17     	698         	0           	                	;
 O-V-~@AV-18     	774         	0           	                	;
 O-V-~@AV-19     	774         	0           	                	;
 O-V-~@AV-2      	798         	0           	                	;
 O-V-~@AV-20     	843         	0           	                	;
 O-V-~@AV-21     	843         	0           	                	;
 O-V-~@AV-22     	843         	0           	                	;
 O-V-~@AV-23     	772         	0           	                	;
 O-V-~@AV-24     	738         	0           	                	;
 O-V-~@AV-25     	839         	0           	                	;
 O-V-~@AV-26     	806         	0           	                	;
 O-V-~@AV-27     	832         	0           	                	;
 O-V-~@AV-28     	849.6       	0           	                	;
 O-V-~@AV-29     	814         	0           	                	;
 O-V-~@AV-3      	696.1       	0           	                	;
 O-V-~@AV-30     	782         	0           	                	;
 O-V-~@AV-31     	830         	0           	                	;
 O-V-~@AV-32     	765         	0           	                	;
 O-V-~@AV-33     	792         	0           	                	;
 O-V-~@AV-34     	774         	0           	                	;
 O-V-~@AV-35     	806         	0           	                	;
 O-V-~@AV-36     	726         	0           	                	;
 O-V-~@AV-37     	774.8       	0           	                	;
 O-V-~@AV-38     	782.2       	0           	                	;
 O-V-~@AV-39     	772         	0           	                	;
 O-V-~@AV-4      	661         	0           	                	;
 O-V-~@AV-40     	736         	0           	                	;
 O-V-~@AV-41     	736         	0           	                	;
 O-V-~@AV-42     	802         	0           	                	;
 O-V-~@AV-43     	812         	0           	                	;
 O-V-~@AV-5      	827         	0           	                	;
 O-V-~@AV-6      	839         	0           	                	;
 O-V-~@AV-7      	823         	0           	                	;
 O-V-~@AV-8      	809         	0           	                	;
 O-V-~@AV-9      	808         	0           	                	;
 I-V-~@AV-1      	772         	0           	                	;
 I-V-~@AV-10     	808         	0           	                	;
 I-V-~@AV-11     	854         	0           	                	;
 I-V-~@AV-12     	769         	0           	                	;
 I-V-~@AV-13     	849         	0           	                	;
 I-V-~@AV-14     	834         	0           	                	;
 I-V-~@AV-15     	807         	0           	                	;
 I-V-~@AV-16     	722         	0           	                	;
 I-V-~@AV-17     	698         	0           	                	;
 I-V-~@AV-18     	774         	0           	                	;
 I-V-~@AV-19     	774         	0           	                	;
 I-V-~@AV-2      	798         	0           	                	;
 I-V-~@AV-20     	843         	0           	                	;
 I-V-~@AV-21     	843         	0           	                	;
 I-V-~@AV-22     	843         	0           	                	;
 I-V-~@AV-23     	772         	0           	                	;
 I-V-~@AV-24     	738         	0           	                	;
 I-V-~@AV-25     	839         	0           	                	;
 I-V-~@AV-26     	806         	0           	                	;
 I-V-~@AV-27     	832         	0           	                	;
 I-V-~@AV-28     	849.6       	0           	                	;
 I-V-~@AV-29     	814         	0           	                	;
 I-V-~@AV-3      	696.1       	0           	                	;
 I-V-~@AV-30     	782         	0           	                	;
 I-V-~@AV-31     	830         	0           	                	;
 I-V-~@AV-32     	765         	0           	                	;
 I-V-~@AV-33     	792         	0           	                	;
 I-V-~@AV-34     	774         	0           	                	;
 I-V-~@AV-35     	806         	0           	                	;
 I-V-~@AV-36     	726         	0           	                	;
 I-V-~@AV-37     	774.8       	0           	                	;
 I-V-~@AV-38     	782.2       	0           	                	;
 I-V-~@AV-39     	772         	0           	                	;
 I-V-~@AV-4      	661         	0           	                	;
 I-V-~@AV-40     	736         	0           	                	;
 I-V-~@AV-41     	736         	0           	                	;
 I-V-~@AV-42     	802         	0           	                	;
 I-V-~@AV-43     	812         	0           	                	;
 I-V-~@AV-5      	827         	0           	                	;
 I-V-~@AV-6      	839         	0           	                	;
 I-V-~@AV-7      	823         	0           	                	;
 I-V-~@AV-8      	809         	0           	                	;
 I-V-~@AV-9      	808         	0           	                	;

[RESERVOIRS]
;ID              	Head        	Pattern         
 HWY_87          	860         	                	;
 SPRING_ST       	860         	                	;

[TANKS]
;ID              	Elevation   	InitLevel   	MinLevel    	MaxLevel    	Diameter    	MinVol      	VolCurve        	Overflow

[PIPES]
;ID              	Node1           	Node2           	Length      	Diameter    	Roughness   	MinorLoss   	Status
 D_V-~@AV-1      	O-AV-1          	O-V-~@AV-1      	0.1         	40.79755    	150         	0           	Open  	;
 D_V-~@AV-10     	O-AV-10         	O-V-~@AV-10     	0.1         	40.79755    	150         	0           	Open  	;
 D_V-~@AV-11     	O-AV-11         	O-V-~@AV-11     	0.1         	40.79755    	150         	0           	Open  	;
 D_V-~@AV-12     	O-AV-12         	O-V-~@AV-12     	0.1         	40.79755    	150         	0           	Open  	;
 D_V-~@AV-13     	O-AV-13         	O-V-~@AV-13     	0.1         	40.79755    	150         	0           	Open  	;
 D_V-~@AV-14     	O-AV-14         	O-V-~@AV-14     	0.1         	40.79755    	150         	0           	Open  	;
 D_V-~@AV-15     	O-AV-15         	O-V-~@AV-15     	0.1         	40.79755    	150         	0           	Open  	;
 D_V-~@AV-16     	O-AV-16         	O-V-~@AV-16     	0.1         	40.79755    	150         	0           	Open  	;
 D_V-~@AV-17     	O-AV-17         	O-V-~@AV-17     	0.1         	40.79755    	150         	0           	Open  	;
 D_V-~@AV-18     	O-AV-18         	O-V-~@AV-18     	0.1         	40.79755    	150         	0           	Open  	;
 D_V-~@AV-19     	O-AV-19         	O-V-~@AV-19     	0.1         	40.79755    	150         	0           	Open  	;
 D_V-~@AV-2      	O-AV-2          	O-V-~@AV-2      	0.1         	40.79755    	150         	0           	Open  	;
 D_V-~@AV-20     	O-AV-20         	O-V-~@AV-20     	0.1         	40.79755    	150         	0           	Open  	;
 D_V-~@AV-21     	O-AV-21         	O-V-~@AV-21     	0.1         	40.79755    	150         	0           	Open  	;
 D_V-~@AV-22     	O-AV-22         	O-V-~@AV-22     	0.1         	40.79755    	150         	0           	Open  	;
 D_V-~@AV-23     	O-AV-23         	O-V-~@AV-23     	0.1         	40.79755    	150         	0           	Open  	;
 D_V-~@AV-24     	O-AV-24         	O-V-~@AV-24     	0.1         	40.79755    	150         	0           	Open  	;
 D_V-~@AV-25     	O-AV-25         	O-V-~@AV-25     	0.1         	40.79755    	150         	0           	Open  	;
 D_V-~@AV-26     	O-AV-26         	O-V-~@AV-26     	0.1         	40.79755    	150         	0           	Open  	;
 D_V-~@AV-27     	O-AV-27         	O-V-~@AV-27     	0.1         	40.79755    	150         	0           	Open  	;
 D_V-~@AV-28     	O-AV-28         	O-V-~@AV-28     	0.1         	40.79755    	150         	0           	Open  	;
 D_V-~@AV-29     	O-AV-29         	O-V-~@AV-29     	0.1         	40.79755    	150         	0           	Open  	;
 D_V-~@AV-3      	O-AV-3          	O-V-~@AV-3      	0.1         	40.79755    	150         	0           	Open  	;
 D_V-~@AV-30     	O-AV-30         	O-V-~@AV-30     	0.1         	40.79755    	150         	0           	Open  	;
 D_V-~@AV-31     	O-AV-31         	O-V-~@AV-31     	0.1         	40.79755    	150         	0           	Open  	;
 D_V-~@AV-32     	O-AV-32         	O-V-~@AV-32     	0.1         	40.79755    	150         	0           	Open  	;
 D_V-~@AV-33     	O-AV-33         	O-V-~@AV-33     	0.1         	40.79755    	150         	0           	Open  	;
 D_V-~@AV-34     	O-AV-34         	O-V-~@AV-34     	0.1         	40.79755    	150         	0           	Open  	;
 D_V-~@AV-35     	O-AV-35         	O-V-~@AV-35     	0.1         	40.79755    	150         	0           	Open  	;
 D_V-~@AV-36     	O-AV-36         	O-V-~@AV-36     	0.1         	40.79755    	150         	0           	Open  	;
 D_V-~@AV-37     	O-AV-37         	O-V-~@AV-37     	0.1         	40.79755    	150         	0           	Open  	;
 D_V-~@AV-38     	O-AV-38         	O-V-~@AV-38     	0.1         	40.79755    	150         	0           	Open  	;
 D_V-~@AV-39     	O-AV-39         	O-V-~@AV-39     	0.1         	40.79755    	150         	0           	Open  	;
 D_V-~@AV-4      	O-AV-4          	O-V-~@AV-4      	0.1         	40.79755    	150         	0           	Open  	;
 D_V-~@AV-40     	O-AV-40         	O-V-~@AV-40     	0.1         	40.79755    	150         	0           	Open  	;
 D_V-~@AV-41     	O-AV-41         	O-V-~@AV-41     	0.1         	40.79755    	150         	0           	Open  	;
 D_V-~@AV-42     	O-AV-42         	O-V-~@AV-42     	0.1         	40.79755    	150         	0           	Open  	;
 D_V-~@AV-43     	O-AV-43         	O-V-~@AV-43     	0.1         	40.79755    	150         	0           	Open  	;
 D_V-~@AV-5      	O-AV-5          	O-V-~@AV-5      	0.1         	40.79755    	150         	0           	Open  	;
 D_V-~@AV-6      	O-AV-6          	O-V-~@AV-6      	0.1         	40.79755    	150         	0           	Open  	;
 D_V-~@AV-7      	O-AV-7          	O-V-~@AV-7      	0.1         	40.79755    	150         	0           	Open  	;
 D_V-~@AV-8      	O-AV-8          	O-V-~@AV-8      	0.1         	40.79755    	150         	0           	Open  	;
 D_V-~@AV-9      	O-AV-9          	O-V-~@AV-9      	0.1         	40.79755    	150         	0           	Open  	;
 P-1             	J-1             	J-2             	2066.84     	3           	100.0998    	0           	Open  	;
 P-10            	J-17            	J-18            	890.83      	4           	100.0998    	0           	Open  	;
 P-100           	J-7             	J-107           	2408.638    	3           	100.0998    	0           	Open  	;
 P-101           	J-79            	J-108           	503.859     	3           	100.0998    	0           	Open  	;
 P-102           	J-26            	J-109           	1986.55     	3           	100.0998    	0           	Open  	;
 P-103           	J-7             	J-110           	1439.52     	3           	100.0998    	0           	Open  	;
 P-104           	J-21            	J-24            	664.859     	3           	100.0998    	0           	Open  	;
 P-105           	J-78            	I-AV-15         	1074.848    	3           	100.0998    	0           	Open  	;
 P-106           	J-80            	J-42            	318.89      	3           	100.0998    	0           	Open  	;
 P-107           	J-106           	J-112           	1710.64     	3           	100.0998    	0           	Open  	;
 P-108           	J-113           	I-AV-29         	477.489     	3           	100.0998    	0           	Open  	;
 P-109           	J-37            	I-AV-37         	4933.438    	3           	100.0998    	0           	Open  	;
 P-11            	J-19            	J-20            	2135.739    	4           	100.0998    	0           	Open  	;
 P-110           	J-116           	J-99            	2400.468    	3           	100.0998    	0           	Open  	;
 P-111           	J-107           	J-53            	135.419     	3           	100.0998    	0           	Open  	;
 P-112           	J-8             	J-117           	1956.848    	3           	100.0998    	0           	Open  	;
 P-113           	J-4             	J-118           	1405.239    	3           	100.0998    	0           	Open  	;
 P-114           	J-67            	O-AV-2          	313.01      	1           	100.0998    	0           	Open  	;
 P-115           	J-53            	J-39            	2880.52     	3           	100.0998    	0           	Open  	;
 P-116           	J-87            	J-49            	641.2       	4           	100.0998    	0           	Open  	;
 P-117           	J-89            	J-91            	2549.968    	4           	100.0998    	0           	Open  	;
 P-118           	J-91            	I-AV-28         	29.239      	4           	100.0998    	0           	Open  	;
 P-119           	J-113           	J-41            	5.13        	3           	100.0998    	0           	Open  	;
 P-12            	J-21            	J-17            	123.75      	4           	100.0998    	0           	Open  	;
 P-120           	J-114           	J-103           	2.009       	3           	100.0998    	0           	Open  	;
 P-121           	O-AV-1          	J-25            	2943.76     	4           	100.0998    	0           	Open  	;
 P-122           	I-AV-2          	J-119           	238.8       	1           	100.0998    	0           	Open  	;
 P-123           	O-AV-3          	I-AV-4          	1719.328    	6           	100.0998    	0           	Open  	;
 P-124           	O-AV-4          	J-74            	567.218     	6           	100.0998    	0           	Open  	;
 P-125           	O-AV-5          	I-AV-6          	1084.3      	6           	100.0998    	0           	Open  	;
 P-126           	O-AV-6          	J-75            	147.589     	6           	100.0998    	0           	Open  	;
 P-127           	O-AV-7          	J-2             	67.98       	6           	100.0998    	0           	Open  	;
 P-128           	O-AV-8          	I-AV-9          	8.689       	3           	100.0998    	0           	Open  	;
 P-129           	O-AV-9          	I-AV-10         	0.289       	3           	100.0998    	0           	Open  	;
 P-13            	J-22            	J-23            	151.69      	4           	100.0998    	0           	Open  	;
 P-130           	O-AV-10         	J-102           	2024.989    	3           	100.0998    	0           	Open  	;
 P-131           	O-AV-11         	I-AV-13         	506.38      	3           	100.0998    	0           	Open  	;
 P-132           	I-AV-12         	I-AV-23         	4.019       	4           	100.0998    	0           	Open  	;
 P-133           	O-AV-13         	J-99            	2207.648    	3           	100.0998    	0           	Open  	;
 P-134           	O-AV-14         	J-100           	889.39      	3           	100.0998    	0           	Open  	;
 P-135           	O-AV-15         	J-111           	5740.298    	3           	100.0998    	0           	Open  	;
 P-136           	O-AV-16         	I-AV-17         	2631.388    	6           	100.0998    	0           	Open  	;
 P-137           	O-AV-17         	I-AV-19         	3037.408    	6           	100.0998    	0           	Open  	;
 P-138           	O-AV-18         	J-32            	58.298      	6           	100.0998    	0           	Open  	;
 P-139           	O-AV-19         	I-AV-18         	9.409       	6           	100.0998    	0           	Open  	;
 P-14            	J-24            	O-AV-12         	231.529     	4           	100.0998    	0           	Open  	;
 P-140           	O-AV-20         	J-16            	134.309     	4           	100.0998    	0           	Open  	;
 P-141           	O-AV-21         	I-AV-22         	39.208      	4           	100.0998    	0           	Open  	;
 P-142           	O-AV-22         	J-96            	810.739     	4           	100.0998    	0           	Open  	;
 P-143           	O-AV-23         	I-AV-1          	2.319       	4           	100.0998    	0           	Open  	;
 P-144           	O-AV-24         	J-71            	7038.58     	6           	100.0998    	0           	Open  	;
 P-145           	O-AV-25         	J-30            	171.059     	4           	100.0998    	0           	Open  	;
 P-146           	O-AV-26         	J-51            	19.54       	3           	100.0998    	0           	Open  	;
 P-147           	O-AV-27         	J-31            	512.32      	4           	100.0998    	0           	Open  	;
 P-148           	O-AV-28         	J-88            	548.359     	4           	100.0998    	0           	Open  	;
 P-149           	O-AV-29         	I-AV-30         	1540.26     	3           	100.0998    	0           	Open  	;
 P-15            	SPRING_ST       	J-4             	66.44       	6           	100.0998    	0           	Open  	;
 P-150           	O-AV-30         	J-114           	126.94      	3           	100.0998    	0           	Open  	;
 P-151           	I-AV-31         	J-28            	897.109     	4           	100.0998    	0           	Open  	;
 P-152           	I-AV-32         	J-14            	1165.26     	4           	100.0998    	0           	Open  	;
 P-153           	O-AV-33         	J-37            	3140.11     	4           	100.0998    	0           	Open  	;
 P-154           	O-AV-34         	J-36            	91.01       	6           	100.0998    	0           	Open  	;
 P-155           	I-AV-35         	J-47            	814.169     	3           	100.0998    	0           	Open  	;
 P-156           	O-AV-36         	J-57            	2608.55     	2           	100.0998    	0           	Open  	;
 P-157           	O-AV-37         	J-115           	4135.49     	3           	100.0998    	0           	Open  	;
 P-158           	O-AV-38         	J-85            	2238.57     	4           	100.0998    	0           	Open  	;
 P-159           	O-AV-39         	J-72            	10.788      	6           	100.0998    	0           	Open  	;
 P-16            	J-22            	O-AV-31         	108.68      	4           	100.0998    	0           	Open  	;
 P-160           	O-AV-40         	I-AV-41         	3.73        	4           	100.0998    	0           	Open  	;
 P-161           	O-AV-41         	J-21            	29.51       	4           	100.0998    	0           	Open  	;
 P-162           	I-AV-42         	J-19            	1617.448    	4           	100.0998    	0           	Open  	;
 P-163           	O-AV-43         	J-97            	2820.58     	4           	100.0998    	0           	Open  	;
 P-17            	J-29            	I-AV-25         	1267.76     	4           	100.0998    	0           	Open  	;
 P-18            	J-30            	I-AV-27         	5117.52     	4           	100.0998    	0           	Open  	;
 P-19            	J-32            	J-5             	9273.468    	4           	100.0998    	0           	Open  	;
 P-2             	J-3             	J-4             	173.77      	3           	100.0998    	0           	Open  	;
 P-20            	J-25            	J-7             	8701.44     	4           	100.0998    	0           	Open  	;
 P-21            	J-33            	O-AV-32         	25.53       	4           	100.0998    	0           	Open  	;
 P-22            	J-34            	J-35            	12720.45    	4           	100.0998    	0           	Open  	;
 P-23            	J-18            	J-36            	153.74      	4           	100.0998    	0           	Open  	;
 P-24            	J-23            	I-AV-33         	1663.77     	4           	100.0998    	0           	Open  	;
 P-25            	J-35            	J-38            	437.79      	4           	100.0998    	0           	Open  	;
 P-26            	J-39            	J-40            	1974.16     	3           	100.0998    	0           	Open  	;
 P-27            	J-31            	J-113           	1487.369    	3           	100.0998    	0           	Open  	;
 P-28            	J-42            	J-43            	456.1       	3           	100.0998    	0           	Open  	;
 P-29            	J-44            	J-9             	526.289     	3           	100.0998    	0           	Open  	;
 P-3             	J-5             	J-6             	3891.218    	3           	100.0998    	0           	Open  	;
 P-30            	J-45            	J-46            	3104.198    	3           	100.0998    	0           	Open  	;
 P-31            	J-37            	O-AV-35         	18.329      	3           	100.0998    	0           	Open  	;
 P-32            	J-28            	J-48            	698.89      	3           	100.0998    	0           	Open  	;
 P-33            	J-49            	J-50            	3530.698    	3           	100.0998    	0           	Open  	;
 P-34            	J-51            	J-52            	3221.638    	3           	100.0998    	0           	Open  	;
 P-35            	J-30            	I-AV-26         	1776.28     	3           	100.0998    	0           	Open  	;
 P-36            	J-53            	J-54            	4996.06     	3           	100.0998    	0           	Open  	;
 P-37            	J-3             	J-69            	3.279       	6           	100.0998    	0           	Open  	;
 P-38            	J-46            	I-AV-36         	1066.65     	2           	100.0998    	0           	Open  	;
 P-39            	J-58            	J-59            	3107.408    	2           	100.0998    	0           	Open  	;
 P-4             	J-7             	J-8             	40.278      	3           	100.0998    	0           	Open  	;
 P-40            	J-60            	J-61            	441.308     	2           	100.0998    	0           	Open  	;
 P-41            	J-17            	J-62            	453.178     	2           	100.0998    	0           	Open  	;
 P-42            	J-18            	J-63            	251.61      	8           	100.0998    	0           	Open  	;
 P-43            	J-64            	J-65            	94.308      	6           	100.0998    	0           	Open  	;
 P-44            	J-66            	J-67            	528.96      	6           	100.0998    	0           	Open  	;
 P-45            	J-68            	J-69            	95.958      	6           	100.0998    	0           	Open  	;
 P-46            	J-56            	HWY_87          	197.11      	6           	100.0998    	0           	Open  	;
 P-47            	J-71            	J-29            	3474.729    	6           	100.0998    	0           	Open  	;
 P-48            	J-69            	J-72            	1528.218    	6           	100.0998    	0           	Open  	;
 P-49            	J-73            	J-20            	63.47       	6           	100.0998    	0           	Open  	;
 P-5             	J-9             	J-10            	4719.72     	3           	100.0998    	0           	Open  	;
 P-50            	J-32            	I-AV-24         	733         	6           	100.0998    	0           	Open  	;
 P-51            	J-74            	I-AV-5          	1356.06     	6           	100.0998    	0           	Open  	;
 P-52            	J-65            	J-76            	290.859     	6           	100.0998    	0           	Open  	;
 P-53            	J-77            	J-36            	3687.138    	6           	100.0998    	0           	Open  	;
 P-54            	J-78            	J-11            	2730.84     	6           	100.0998    	0           	Open  	;
 P-55            	J-35            	J-79            	874.46      	6           	100.0998    	0           	Open  	;
 P-56            	J-80            	J-66            	481.079     	6           	100.0998    	0           	Open  	;
 P-57            	J-72            	I-AV-34         	51.958      	6           	100.0998    	0           	Open  	;
 P-58            	J-81            	J-77            	46.74       	6           	100.0998    	0           	Open  	;
 P-59            	J-73            	J-80            	723.158     	6           	100.0998    	0           	Open  	;
 P-6             	J-11            	J-12            	2779.1      	3           	100.0998    	0           	Open  	;
 P-60            	J-60            	I-AV-39         	724.299     	6           	100.0998    	0           	Open  	;
 P-61            	J-67            	J-82            	252.429     	6           	100.0998    	0           	Open  	;
 P-62            	J-65            	I-AV-3          	2102.33     	6           	100.0998    	0           	Open  	;
 P-63            	J-75            	I-AV-7          	2045.15     	6           	100.0998    	0           	Open  	;
 P-64            	J-75            	J-78            	1614.89     	6           	100.0998    	0           	Open  	;
 P-65            	J-74            	I-AV-16         	9807.508    	6           	100.0998    	0           	Open  	;
 P-66            	J-64            	J-68            	802.658     	6           	100.0998    	0           	Open  	;
 P-67            	J-82            	J-64            	105.738     	6           	100.0998    	0           	Open  	;
 P-68            	J-56            	J-60            	526.77      	6           	100.0998    	0           	Open  	;
 P-69            	J-20            	J-56            	206.699     	6           	100.0998    	0           	Open  	;
 P-7             	J-9             	J-13            	2944.12     	3           	100.0998    	0           	Open  	;
 P-70            	J-47            	J-45            	1351.02     	4           	100.0998    	0           	Open  	;
 P-71            	J-83            	J-84            	238.289     	4           	100.0998    	0           	Open  	;
 P-72            	J-85            	J-58            	1337.818    	4           	100.0998    	0           	Open  	;
 P-73            	J-48            	J-86            	220.66      	4           	100.0998    	0           	Open  	;
 P-74            	J-14            	J-44            	413.17      	4           	100.0998    	0           	Open  	;
 P-75            	J-87            	J-89            	1800.63     	4           	100.0998    	0           	Open  	;
 P-76            	J-89            	J-90            	805.679     	4           	100.0998    	0           	Open  	;
 P-77            	J-91            	J-92            	1657.42     	4           	100.0998    	0           	Open  	;
 P-78            	J-93            	I-AV-38         	5276.33     	4           	100.0998    	0           	Open  	;
 P-79            	J-31            	J-87            	4924.56     	4           	100.0998    	0           	Open  	;
 P-8             	J-14            	J-15            	2275.739    	3           	100.0998    	0           	Open  	;
 P-80            	J-84            	J-22            	889.059     	4           	100.0998    	0           	Open  	;
 P-81            	J-38            	J-94            	1088.208    	4           	100.0998    	0           	Open  	;
 P-82            	J-95            	I-AV-40         	1658.739    	4           	100.0998    	0           	Open  	;
 P-83            	J-86            	J-33            	1244.53     	4           	100.0998    	0           	Open  	;
 P-84            	J-58            	J-37            	5716.318    	4           	100.0998    	0           	Open  	;
 P-85            	J-38            	J-26            	1189.04     	4           	100.0998    	0           	Open  	;
 P-86            	J-95            	O-AV-42         	35.798      	4           	100.0998    	0           	Open  	;
 P-87            	J-16            	I-AV-21         	2539.35     	4           	100.0998    	0           	Open  	;
 P-88            	J-95            	J-34            	6834.66     	4           	100.0998    	0           	Open  	;
 P-89            	J-73            	I-AV-43         	1202.38     	4           	100.0998    	0           	Open  	;
 P-9             	J-5             	I-AV-20         	3215.55     	4           	100.0998    	0           	Open  	;
 P-90            	J-83            	J-19            	1620.28     	4           	100.0998    	0           	Open  	;
 P-91            	J-42            	J-98            	375.72      	3           	100.0998    	0           	Open  	;
 P-92            	J-99            	I-AV-14         	400.709     	3           	100.0998    	0           	Open  	;
 P-93            	J-16            	J-101           	1994.31     	3           	100.0998    	0           	Open  	;
 P-94            	J-2             	I-AV-8          	2750.378    	3           	100.0998    	0           	Open  	;
 P-95            	J-71            	J-114           	2154.35     	3           	100.0998    	0           	Open  	;
 P-96            	J-30            	J-104           	3343.82     	3           	100.0998    	0           	Open  	;
 P-97            	J-34            	J-105           	4699.568    	3           	100.0998    	0           	Open  	;
 P-98            	J-39            	J-106           	7442.89     	3           	100.0998    	0           	Open  	;
 P-99            	J-2             	I-AV-11         	2903.58     	3           	100.0998    	0           	Open  	;
 V-~@AV-1        	I-AV-1          	I-V-~@AV-1      	0.1         	40.79755    	150         	0           	Open  	;
 V-~@AV-10       	I-AV-10         	I-V-~@AV-10     	0.1         	40.79755    	150         	0           	Open  	;
 V-~@AV-11       	I-AV-11         	I-V-~@AV-11     	0.1         	40.79755    	150         	0           	Open  	;
 V-~@AV-12       	I-AV-12         	I-V-~@AV-12     	0.1         	40.79755    	150         	0           	Open  	;
 V-~@AV-13       	I-AV-13         	I-V-~@AV-13     	0.1         	40.79755    	150         	0           	Open  	;
 V-~@AV-14       	I-AV-14         	I-V-~@AV-14     	0.1         	40.79755    	150         	0           	Open  	;
 V-~@AV-15       	I-AV-15         	I-V-~@AV-15     	0.1         	40.79755    	150         	0           	Open  	;
 V-~@AV-16       	I-AV-16         	I-V-~@AV-16     	0.1         	40.79755    	150         	0           	Open  	;
 V-~@AV-17       	I-AV-17         	I-V-~@AV-17     	0.1         	40.79755    	150         	0           	Open  	;
 V-~@AV-18       	I-AV-18         	I-V-~@AV-18     	0.1         	40.79755    	150         	0           	Open  	;
 V-~@AV-19       	I-AV-19         	I-V-~@AV-19     	0.1         	40.79755    	150         	0           	Open  	;
 V-~@AV-2        	I-AV-2          	I-V-~@AV-2      	0.1         	40.79755    	150         	0           	Open  	;
 V-~@AV-20       	I-AV-20         	I-V-~@AV-20     	0.1         	40.79755    	150         	0           	Open  	;
 V-~@AV-21       	I-AV-21         	I-V-~@AV-21     	0.1         	40.79755    	150         	0           	Open  	;
 V-~@AV-22       	I-AV-22         	I-V-~@AV-22     	0.1         	40.79755    	150         	0           	Open  	;
 V-~@AV-23       	I-AV-23         	I-V-~@AV-23     	0.1         	40.79755    	150         	0           	Open  	;
 V-~@AV-24       	I-AV-24         	I-V-~@AV-24     	0.1         	40.79755    	150         	0           	Open  	;
 V-~@AV-25       	I-AV-25         	I-V-~@AV-25     	0.1         	40.79755    	150         	0           	Open  	;
 V-~@AV-26       	I-AV-26         	I-V-~@AV-26     	0.1         	40.79755    	150         	0           	Open  	;
 V-~@AV-27       	I-AV-27         	I-V-~@AV-27     	0.1         	40.79755    	150         	0           	Open  	;
 V-~@AV-28       	I-AV-28         	I-V-~@AV-28     	0.1         	40.79755    	150         	0           	Open  	;
 V-~@AV-29       	I-AV-29         	I-V-~@AV-29     	0.1         	40.79755    	150         	0           	Open  	;
 V-~@AV-3        	I-AV-3          	I-V-~@AV-3      	0.1         	40.79755    	150         	0           	Open  	;
 V-~@AV-30       	I-AV-30         	I-V-~@AV-30     	0.1         	40.79755    	150         	0           	Open  	;
 V-~@AV-31       	I-AV-31         	I-V-~@AV-31     	0.1         	40.79755    	150         	0           	Open  	;
 V-~@AV-32       	I-AV-32         	I-V-~@AV-32     	0.1         	40.79755    	150         	0           	Open  	;
 V-~@AV-33       	I-AV-33         	I-V-~@AV-33     	0.1         	40.79755    	150         	0           	Open  	;
 V-~@AV-34       	I-AV-34         	I-V-~@AV-34     	0.1         	40.79755    	150         	0           	Open  	;
 V-~@AV-35       	I-AV-35         	I-V-~@AV-35     	0.1         	40.79755    	150         	0           	Open  	;
 V-~@AV-36       	I-AV-36         	I-V-~@AV-36     	0.1         	40.79755    	150         	0           	Open  	;
 V-~@AV-37       	I-AV-37         	I-V-~@AV-37     	0.1         	40.79755    	150         	0           	Open  	;
 V-~@AV-38       	I-AV-38         	I-V-~@AV-38     	0.1         	40.79755    	150         	0           	Open  	;
 V-~@AV-39       	I-AV-39         	I-V-~@AV-39     	0.1         	40.79755    	150         	0           	Open  	;
 V-~@AV-4        	I-AV-4          	I-V-~@AV-4      	0.1         	40.79755    	150         	0           	Open  	;
 V-~@AV-40       	I-AV-40         	I-V-~@AV-40     	0.1         	40.79755    	150         	0           	Open  	;
 V-~@AV-41       	I-AV-41         	I-V-~@AV-41     	0.1         	40.79755    	150         	0           	Open  	;
 V-~@AV-42       	I-AV-42         	I-V-~@AV-42     	0.1         	40.79755    	150         	0           	Open  	;
 V-~@AV-43       	I-AV-43         	I-V-~@AV-43     	0.1         	40.79755    	150         	0           	Open  	;
 V-~@AV-5        	I-AV-5          	I-V-~@AV-5      	0.1         	40.79755    	150         	0           	Open  	;
 V-~@AV-6        	I-AV-6          	I-V-~@AV-6      	0.1         	40.79755    	150         	0           	Open  	;
 V-~@AV-7        	I-AV-7          	I-V-~@AV-7      	0.1         	40.79755    	150         	0           	Open  	;
 V-~@AV-8        	I-AV-8          	I-V-~@AV-8      	0.1         	40.79755    	150         	0           	Open  	;
 V-~@AV-9        	I-AV-9          	I-V-~@AV-9      	0.1         	40.79755    	150         	0           	Open  	;

[PUMPS]
;ID              	Node1           	Node2           	Parameters

[VALVES]
;ID              	Node1           	Node2           	Diameter    	Type	Setting     	MinorLoss   
 ~@V-~@AV-1      	I-V-~@AV-1      	O-V-~@AV-1      	1000        	TCV 	1.915758E+09	0           	;
 ~@V-~@AV-10     	I-V-~@AV-10     	O-V-~@AV-10     	1000        	TCV 	1.915758E+09	0           	;
 ~@V-~@AV-11     	I-V-~@AV-11     	O-V-~@AV-11     	1000        	TCV 	1.915758E+09	0           	;
 ~@V-~@AV-12     	I-V-~@AV-12     	O-V-~@AV-12     	1000        	TCV 	1.915758E+09	0           	;
 ~@V-~@AV-13     	I-V-~@AV-13     	O-V-~@AV-13     	1000        	TCV 	1.915758E+09	0           	;
 ~@V-~@AV-14     	I-V-~@AV-14     	O-V-~@AV-14     	1000        	TCV 	1.915758E+09	0           	;
 ~@V-~@AV-15     	I-V-~@AV-15     	O-V-~@AV-15     	1000        	TCV 	1.915758E+09	0           	;
 ~@V-~@AV-16     	I-V-~@AV-16     	O-V-~@AV-16     	1000        	TCV 	1.915758E+09	0           	;
 ~@V-~@AV-17     	I-V-~@AV-17     	O-V-~@AV-17     	1000        	TCV 	1.915758E+09	0           	;
 ~@V-~@AV-18     	I-V-~@AV-18     	O-V-~@AV-18     	1000        	TCV 	1.915758E+09	0           	;
 ~@V-~@AV-19     	I-V-~@AV-19     	O-V-~@AV-19     	1000        	TCV 	1.915758E+09	0           	;
 ~@V-~@AV-2      	I-V-~@AV-2      	O-V-~@AV-2      	1000        	TCV 	1.915758E+09	0           	;
 ~@V-~@AV-20     	I-V-~@AV-20     	O-V-~@AV-20     	1000        	TCV 	1.915758E+09	0           	;
 ~@V-~@AV-21     	I-V-~@AV-21     	O-V-~@AV-21     	1000        	TCV 	1.915758E+09	0           	;
 ~@V-~@AV-22     	I-V-~@AV-22     	O-V-~@AV-22     	1000        	TCV 	1.915758E+09	0           	;
 ~@V-~@AV-23     	I-V-~@AV-23     	O-V-~@AV-23     	1000        	TCV 	1.915758E+09	0           	;
 ~@V-~@AV-24     	I-V-~@AV-24     	O-V-~@AV-24     	1000        	TCV 	1.915758E+09	0           	;
 ~@V-~@AV-25     	I-V-~@AV-25     	O-V-~@AV-25     	1000        	TCV 	1.915758E+09	0           	;
 ~@V-~@AV-26     	I-V-~@AV-26     	O-V-~@AV-26     	1000        	TCV 	1.915758E+09	0           	;
 ~@V-~@AV-27     	I-V-~@AV-27     	O-V-~@AV-27     	1000        	TCV 	1.915758E+09	0           	;
 ~@V-~@AV-28     	I-V-~@AV-28     	O-V-~@AV-28     	1000        	TCV 	1.915758E+09	0           	;
 ~@V-~@AV-29     	I-V-~@AV-29     	O-V-~@AV-29     	1000        	TCV 	1.915758E+09	0           	;
 ~@V-~@AV-3      	I-V-~@AV-3      	O-V-~@AV-3      	1000        	TCV 	1.915758E+09	0           	;
 ~@V-~@AV-30     	I-V-~@AV-30     	O-V-~@AV-30     	1000        	TCV 	1.915758E+09	0           	;
 ~@V-~@AV-31     	I-V-~@AV-31     	O-V-~@AV-31     	1000        	TCV 	1.915758E+09	0           	;
 ~@V-~@AV-32     	I-V-~@AV-32     	O-V-~@AV-32     	1000        	TCV 	1.915758E+09	0           	;
 ~@V-~@AV-33     	I-V-~@AV-33     	O-V-~@AV-33     	1000        	TCV 	1.915758E+09	0           	;
 ~@V-~@AV-34     	I-V-~@AV-34     	O-V-~@AV-34     	1000        	TCV 	1.915758E+09	0           	;
 ~@V-~@AV-35     	I-V-~@AV-35     	O-V-~@AV-35     	1000        	TCV 	1.915758E+09	0           	;
 ~@V-~@AV-36     	I-V-~@AV-36     	O-V-~@AV-36     	1000        	TCV 	1.915758E+09	0           	;
 ~@V-~@AV-37     	I-V-~@AV-37     	O-V-~@AV-37     	1000        	TCV 	1.915758E+09	0           	;
 ~@V-~@AV-38     	I-V-~@AV-38     	O-V-~@AV-38     	1000        	TCV 	1.915758E+09	0           	;
 ~@V-~@AV-39     	I-V-~@AV-39     	O-V-~@AV-39     	1000        	TCV 	1.915758E+09	0           	;
 ~@V-~@AV-4      	I-V-~@AV-4      	O-V-~@AV-4      	1000        	TCV 	1.915758E+09	0           	;
 ~@V-~@AV-40     	I-V-~@AV-40     	O-V-~@AV-40     	1000        	TCV 	1.915758E+09	0           	;
 ~@V-~@AV-41     	I-V-~@AV-41     	O-V-~@AV-41     	1000        	TCV 	1.915758E+09	0           	;
 ~@V-~@AV-42     	I-V-~@AV-42     	O-V-~@AV-42     	1000        	TCV 	1.915758E+09	0           	;
 ~@V-~@AV-43     	I-V-~@AV-43     	O-V-~@AV-43     	1000        	TCV 	1.915758E+09	0           	;
 ~@V-~@AV-5      	I-V-~@AV-5      	O-V-~@AV-5      	1000        	TCV 	1.915758E+09	0           	;
 ~@V-~@AV-6      	I-V-~@AV-6      	O-V-~@AV-6      	1000        	TCV 	1.915758E+09	0           	;
 ~@V-~@AV-7      	I-V-~@AV-7      	O-V-~@AV-7      	1000        	TCV 	1.915758E+09	0           	;
 ~@V-~@AV-8      	I-V-~@AV-8      	O-V-~@AV-8      	1000        	TCV 	1.915758E+09	0           	;
 ~@V-~@AV-9      	I-V-~@AV-9      	O-V-~@AV-9      	1000        	TCV 	1.915758E+09	0           	;

[TAGS]

[DEMANDS]
;Junction        	Demand      	Pattern         	Category

[STATUS]
;ID              	Status/Setting

[PATTERNS]
;ID              	Multipliers
;
 1               	0.33        	0.25        	0.209       	0.209       	0.259       	0.36        
 1               	0.529       	0.91        	1.2         	1.299       	1.34        	1.34        
 1               	1.32        	1.269       	1.25        	1.25        	1.279       	1.37        
 1               	1.519       	1.7         	1.75        	1.669       	0.899       	0.479       
;
 11              	1           
;
 ENRG1           	1           	1           	1           	1           	1           	1           
 ENRG1           	1           	1           	1           	1           	1           	1           
 ENRG1           	1           	1           	1           	1           	1           	1           
 ENRG1           	1           	1           	1           	1           	1           

[CURVES]
;ID              	X-Value     	Y-Value

[CONTROLS]

[RULES]

[ENERGY]
 Global Efficiency  	75
 Global Price       	0
 Global Pattern     	ENRG1
 Demand Charge      	0

[EMITTERS]
;Junction        	Coefficient

[QUALITY]
;Node            	InitQual

[SOURCES]
;Node            	Type        	Quality     	Pattern

[REACTIONS]
;Type     	Pipe/Tank       	Coefficient


[REACTIONS]
 Order Bulk            	0
 Order Tank            	0
 Order Wall            	0
 Global Bulk           	0
 Global Wall           	0
 Limiting Potential    	0
 Roughness Correlation 	0

[MIXING]
;Tank            	Model

[TIMES]
 Duration           	24:00 
 Hydraulic Timestep 	1:00 
 Quality Timestep   	0:05 
 Pattern Timestep   	1:00 
 Pattern Start      	0:00
 Report Timestep    	1:00
 Report Start       	0:00
 Start ClockTime    	12 am
 Statistic          	None

[REPORT]
 Status             	Full
 Summary            	No
 Page               	0

[OPTIONS]
 Units              	GPM
 Headloss           	H-W
 Specific Gravity   	1
 Viscosity          	1
 Trials             	100
 Accuracy           	0.001
 CHECKFREQ          	2
 MAXCHECK           	10
 DAMPLIMIT          	0
 Unbalanced         	Continue 10
 Pattern            	1
 Demand Multiplier  	1.0
 Emitter Exponent   	0.5
 Quality            	AGE mg/L
 Diffusivity        	0.05
 Tolerance          	0.01

[COORDINATES]
;Node            	X-Coord           	Y-Coord
I-AV-1          	4856041.070       	3423917.000       
I-AV-10         	4871357.590       	3424214.000       
I-AV-11         	4868335.127       	3426477.866       
I-AV-12         	4856044.580       	3423912.000       
I-AV-13         	4868321.870       	3427005.000       
I-AV-14         	4868349.200       	3429299.000       
I-AV-15         	4867766.170       	3421078.000       
I-AV-16         	4862441.450       	3413080.000       
I-AV-17         	4861678.770       	3410561.000       
I-AV-18         	4863409.600       	3408054.000       
I-AV-19         	4863406.150       	3408063.000       
I-AV-2          	4859861.160       	3421824.000       
I-AV-20         	4875636.360       	3410471.000       
I-AV-21         	4877769.990       	3412078.000       
I-AV-22         	4877802.220       	3412100.000       
I-AV-23         	4856042.350       	3423915.000       
I-AV-24         	4863459.320       	3407268.000       
I-AV-25         	4866030.530       	3396729.000       
I-AV-26         	4867150.250       	3398134.000       
I-AV-27         	4861233.740       	3395333.000       
I-AV-28         	4860588.510       	3388533.000       
I-AV-29         	4862018.160       	3396541.000       
I-AV-3          	4862044.240       	3422747.000       
I-AV-30         	4862486.900       	3398008.000       
I-AV-31         	4854259.880       	3419071.000       
I-AV-32         	4854888.540       	3416233.000       
I-AV-33         	4852671.450       	3418281.000       
I-AV-34         	4857588.270       	3422606.000       
I-AV-35         	4849933.180       	3416725.000       
I-AV-36         	4848398.030       	3410904.000       
I-AV-37         	4846412.550       	3420198.000       
I-AV-38         	4841459.120       	3414026.000       
I-AV-39         	4857579.020       	3422544.000       
I-AV-4          	4863756.500       	3422903.000       
I-AV-40         	4856515.840       	3423168.000       
I-AV-41         	4856519.560       	3423169.000       
I-AV-42         	4854970.550       	3422627.000       
I-AV-43         	4858877.650       	3420396.000       
I-AV-5          	4865620.080       	3422978.000       
I-AV-6          	4866661.640       	3422677.000       
I-AV-7          	4868608.100       	3423576.000       
I-AV-8          	4871348.740       	3424215.000       
I-AV-9          	4871357.310       	3424214.000       
J-1             	4866850.390       	3422624.000       
J-10            	4856431.010       	3409631.000       
J-100           	4869162.020       	3429660.000       
J-101           	4877127.500       	3409079.000       
J-102           	4873307.940       	3423669.000       
J-103           	4862473.500       	3398135.000       
J-104           	4869287.510       	3395411.000       
J-105           	4845586.500       	3423401.000       
J-106           	4839943.480       	3436086.000       
J-107           	4850014.500       	3436520.000       
J-108           	4837065.270       	3432366.000       
J-109           	4838849.560       	3435334.000       
J-11            	4870891.780       	3421169.000       
J-110           	4849230.760       	3434524.000       
J-111           	4868299.710       	3415363.000       
J-112           	4838264.870       	3436416.000       
J-113           	4861548.500       	3396627.000       
J-114           	4862475.490       	3398135.000       
J-115           	4842913.670       	3422403.000       
J-116           	4866477.000       	3431067.000       
J-117           	4849794.410       	3432380.000       
J-118           	4860440.000       	3423192.000       
J-119           	4860058.500       	3421689.000       
J-12            	4873143.170       	3419540.000       
J-13            	4857937.090       	3412676.000       
J-14            	4855393.500       	3415183.000       
J-15            	4857653.500       	3415450.000       
J-16            	4875758.000       	3410528.000       
J-17            	4856667.000       	3423133.000       
J-18            	4857451.000       	3422710.000       
J-19            	4855874.510       	3421286.000       
J-2             	4868665.000       	3423613.000       
J-20            	4858010.000       	3421318.000       
J-21            	4856548.990       	3423171.000       
J-22            	4854248.500       	3419179.000       
J-23            	4854109.720       	3419118.000       
J-24            	4856172.500       	3423719.000       
J-25            	4854343.500       	3426322.000       
J-26            	4837258.600       	3434144.000       
J-28            	4854019.000       	3418207.000       
J-29            	4865151.410       	3397642.000       
J-3             	4859100.410       	3422379.000       
J-30            	4866180.010       	3396646.000       
J-31            	4860724.500       	3395389.000       
J-32            	4863431.490       	3408000.000       
J-33            	4854874.510       	3416254.000       
J-34            	4849217.980       	3426384.000       
J-35            	4838292.570       	3432899.000       
J-36            	4857604.000       	3422696.000       
J-37            	4849934.000       	3416743.000       
J-38            	4838072.620       	3433277.000       
J-39            	4847274.990       	3437369.000       
J-4             	4859209.140       	3422515.000       
J-40            	4846640.000       	3439238.000       
J-41            	4861545.000       	3396624.000       
J-42            	4858843.860       	3421451.000       
J-43            	4859134.000       	3421099.000       
J-44            	4855445.170       	3414773.000       
J-45            	4849547.590       	3414595.000       
J-46            	4849281.500       	3411502.000       
J-47            	4849813.420       	3415919.000       
J-48            	4854130.920       	3417517.000       
J-49            	4857333.650       	3391005.000       
J-5             	4872594.000       	3409430.000       
J-50            	4854901.720       	3388445.000       
J-51            	4867168.310       	3398141.000       
J-52            	4870345.600       	3398674.000       
J-53            	4850063.490       	3436646.000       
J-54            	4850528.950       	3441621.000       
J-56            	4857887.500       	3421484.000       
J-57            	4846393.850       	3409235.000       
J-58            	4844730.990       	3414375.000       
J-59            	4843618.970       	3411474.000       
J-6             	4871900.800       	3405601.000       
J-60            	4857486.000       	3421826.000       
J-61            	4857142.720       	3421548.000       
J-62            	4856885.990       	3423530.000       
J-63            	4857411.500       	3422462.000       
J-64            	4859949.490       	3422089.000       
J-65            	4860042.520       	3422104.000       
J-66            	4859089.510       	3421871.000       
J-67            	4859602.500       	3422000.000       
J-68            	4859187.500       	3422341.000       
J-69            	4859098.320       	3422376.000       
J-7             	4850631.580       	3434192.000       
J-71            	4862860.010       	3400254.000       
J-72            	4857580.510       	3422554.000       
J-73            	4858055.000       	3421273.000       
J-74            	4864290.500       	3422711.000       
J-75            	4866798.990       	3422622.000       
J-76            	4860330.510       	3422063.000       
J-77            	4859351.500       	3425942.000       
J-78            	4868294.970       	3422014.000       
J-79            	4837567.130       	3432410.000       
J-8             	4850624.710       	3434152.000       
J-80            	4858641.000       	3421697.000       
J-81            	4859374.410       	3425983.000       
J-82            	4859847.000       	3422063.000       
J-83            	4854640.490       	3420236.000       
J-84            	4854557.640       	3420013.000       
J-85            	4843510.120       	3414922.000       
J-86            	4854238.390       	3417324.000       
J-87            	4857584.930       	3391595.000       
J-88            	4860893.460       	3388077.000       
J-89            	4859118.930       	3390652.000       
J-9             	4855447.090       	3414247.000       
J-90            	4859861.060       	3390966.000       
J-91            	4860567.840       	3388554.000       
J-92            	4862224.670       	3388510.000       
J-93            	4836188.000       	3414260.000       
J-94            	4838990.530       	3433862.000       
J-95            	4854941.000       	3422648.000       
J-96            	4878475.510       	3412552.000       
J-97            	4859879.010       	3417760.000       
J-98            	4859219.160       	3421469.000       
J-99            	4867965.490       	3429183.000       
O-AV-1          	4856041.070       	3423917.000       
O-AV-10         	4871357.590       	3424214.000       
O-AV-11         	4868332.866       	3426511.789       
O-AV-12         	4856044.580       	3423912.000       
O-AV-13         	4868321.870       	3427005.000       
O-AV-14         	4868349.200       	3429299.000       
O-AV-15         	4867766.170       	3421078.000       
O-AV-16         	4862441.450       	3413080.000       
O-AV-17         	4861678.770       	3410561.000       
O-AV-18         	4863409.600       	3408054.000       
O-AV-19         	4863406.150       	3408063.000       
O-AV-2          	4859861.160       	3421824.000       
O-AV-20         	4875636.360       	3410471.000       
O-AV-21         	4877769.990       	3412078.000       
O-AV-22         	4877802.220       	3412100.000       
O-AV-23         	4856042.350       	3423915.000       
O-AV-24         	4863459.320       	3407268.000       
O-AV-25         	4866030.530       	3396729.000       
O-AV-26         	4867150.250       	3398134.000       
O-AV-27         	4861233.740       	3395333.000       
O-AV-28         	4860588.510       	3388533.000       
O-AV-29         	4862018.160       	3396541.000       
O-AV-3          	4862044.240       	3422747.000       
O-AV-30         	4862486.900       	3398008.000       
O-AV-31         	4854259.880       	3419071.000       
O-AV-32         	4854888.540       	3416233.000       
O-AV-33         	4852671.450       	3418281.000       
O-AV-34         	4857588.270       	3422606.000       
O-AV-35         	4849933.180       	3416725.000       
O-AV-36         	4848398.030       	3410904.000       
O-AV-37         	4846412.550       	3420198.000       
O-AV-38         	4841459.120       	3414026.000       
O-AV-39         	4857579.020       	3422544.000       
O-AV-4          	4863756.500       	3422903.000       
O-AV-40         	4856515.840       	3423168.000       
O-AV-41         	4856519.560       	3423169.000       
O-AV-42         	4854970.550       	3422627.000       
O-AV-43         	4858877.650       	3420396.000       
O-AV-5          	4865620.080       	3422978.000       
O-AV-6          	4866661.640       	3422677.000       
O-AV-7          	4868608.100       	3423576.000       
O-AV-8          	4871348.740       	3424215.000       
O-AV-9          	4871357.310       	3424214.000       
O-V-~@AV-1      	4856041.070       	3423917.000       
O-V-~@AV-10     	4871357.590       	3424214.000       
O-V-~@AV-11     	4868335.850       	3426498.000       
O-V-~@AV-12     	4856044.580       	3423912.000       
O-V-~@AV-13     	4868321.870       	3427005.000       
O-V-~@AV-14     	4868349.200       	3429299.000       
O-V-~@AV-15     	4867766.170       	3421078.000       
O-V-~@AV-16     	4862441.450       	3413080.000       
O-V-~@AV-17     	4861678.770       	3410561.000       
O-V-~@AV-18     	4863409.600       	3408054.000       
O-V-~@AV-19     	4863406.150       	3408063.000       
O-V-~@AV-2      	4859861.160       	3421824.000       
O-V-~@AV-20     	4875636.360       	3410471.000       
O-V-~@AV-21     	4877769.990       	3412078.000       
O-V-~@AV-22     	4877802.220       	3412100.000       
O-V-~@AV-23     	4856042.350       	3423915.000       
O-V-~@AV-24     	4863459.320       	3407268.000       
O-V-~@AV-25     	4866030.530       	3396729.000       
O-V-~@AV-26     	4867150.250       	3398134.000       
O-V-~@AV-27     	4861233.740       	3395333.000       
O-V-~@AV-28     	4860588.510       	3388533.000       
O-V-~@AV-29     	4862018.160       	3396541.000       
O-V-~@AV-3      	4862044.240       	3422747.000       
O-V-~@AV-30     	4862486.900       	3398008.000       
O-V-~@AV-31     	4854259.880       	3419071.000       
O-V-~@AV-32     	4854888.540       	3416233.000       
O-V-~@AV-33     	4852671.450       	3418281.000       
O-V-~@AV-34     	4857588.270       	3422606.000       
O-V-~@AV-35     	4849933.180       	3416725.000       
O-V-~@AV-36     	4848398.030       	3410904.000       
O-V-~@AV-37     	4846412.550       	3420198.000       
O-V-~@AV-38     	4841459.120       	3414026.000       
O-V-~@AV-39     	4857579.020       	3422544.000       
O-V-~@AV-4      	4863756.500       	3422903.000       
O-V-~@AV-40     	4856515.840       	3423168.000       
O-V-~@AV-41     	4856519.560       	3423169.000       
O-V-~@AV-42     	4854970.550       	3422627.000       
O-V-~@AV-43     	4858877.650       	3420396.000       
O-V-~@AV-5      	4865620.080       	3422978.000       
O-V-~@AV-6      	4866661.640       	3422677.000       
O-V-~@AV-7      	4868608.100       	3423576.000       
O-V-~@AV-8      	4871348.740       	3424215.000       
O-V-~@AV-9      	4871357.310       	3424214.000       
I-V-~@AV-1      	4856041.070       	3423917.000       
I-V-~@AV-10     	4871357.590       	3424214.000       
I-V-~@AV-11     	4868335.850       	3426498.000       
I-V-~@AV-12     	4856044.580       	3423912.000       
I-V-~@AV-13     	4868321.870       	3427005.000       
I-V-~@AV-14     	4868349.200       	3429299.000       
I-V-~@AV-15     	4867766.170       	3421078.000       
I-V-~@AV-16     	4862441.450       	3413080.000       
I-V-~@AV-17     	4861678.770       	3410561.000       
I-V-~@AV-18     	4863409.600       	3408054.000       
I-V-~@AV-19     	4863406.150       	3408063.000       
I-V-~@AV-2      	4859861.160       	3421824.000       
I-V-~@AV-20     	4875636.360       	3410471.000       
I-V-~@AV-21     	4877769.990       	3412078.000       
I-V-~@AV-22     	4877802.220       	3412100.000       
I-V-~@AV-23     	4856042.350       	3423915.000       
I-V-~@AV-24     	4863459.320       	3407268.000       
I-V-~@AV-25     	4866030.530       	3396729.000       
I-V-~@AV-26     	4867150.250       	3398134.000       
I-V-~@AV-27     	4861233.740       	3395333.000       
I-V-~@AV-28     	4860588.510       	3388533.000       
I-V-~@AV-29     	4862018.160       	3396541.000       
I-V-~@AV-3      	4862044.240       	3422747.000       
I-V-~@AV-30     	4862486.900       	3398008.000       
I-V-~@AV-31     	4854259.880       	3419071.000       
I-V-~@AV-32     	4854888.540       	3416233.000       
I-V-~@AV-33     	4852671.450       	3418281.000       
I-V-~@AV-34     	4857588.270       	3422606.000       
I-V-~@AV-35     	4849933.180       	3416725.000       
I-V-~@AV-36     	4848398.030       	3410904.000       
I-V-~@AV-37     	4846412.550       	3420198.000       
I-V-~@AV-38     	4841459.120       	3414026.000       
I-V-~@AV-39     	4857579.020       	3422544.000       
I-V-~@AV-4      	4863756.500       	3422903.000       
I-V-~@AV-40     	4856515.840       	3423168.000       
I-V-~@AV-41     	4856519.560       	3423169.000       
I-V-~@AV-42     	4854970.550       	3422627.000       
I-V-~@AV-43     	4858877.650       	3420396.000       
I-V-~@AV-5      	4865620.080       	3422978.000       
I-V-~@AV-6      	4866661.640       	3422677.000       
I-V-~@AV-7      	4868608.100       	3423576.000       
I-V-~@AV-8      	4871348.740       	3424215.000       
I-V-~@AV-9      	4871357.310       	3424214.000       
HWY_87          	4858030.080       	3421621.000       
SPRING_ST       	4859149.360       	3422543.000       

[VERTICES]
;Link            	X-Coord           	Y-Coord

[LABELS]
;X-Coord             Y-Coord             Label & Anchor Node

[BACKDROP]
  DIMENSIONS  	4834073.625       	3385399.800       	4880589.886       	3444298.200       
 UNITS          	None
 FILE           	
 OFFSET         	0.00            	0.00            

[END]
