[TITLE]


[JUNCTIONS]
;ID              	Elev        	Demand      	Pattern         
 2               	255         	92.4        	2               	;
 3               	255         	92.4        	1               	;
 4               	255         	88.2        	1               	;
 5               	255         	88.2        	1               	;
 6               	255         	88.2        	1               	;
 7               	255         	88.2        	1               	;
 8               	255         	88.2        	1               	;
 9               	255         	170         	1               	;
 10              	255         	1           	1               	;
 11              	255         	170         	1               	;
 12              	255         	117.1       	1               	;
 13              	255         	117.1       	1               	;
 14              	255         	92.4        	1               	;
 15              	255         	92.4        	1               	;
 16              	260         	170         	1               	;
 17              	272.8       	57.5        	1               	;
 18              	255         	117.1       	1               	;
 19              	255         	117.1       	1               	;
 20              	255         	170         	1               	;

[RESERVOIRS]
;ID              	Head        	Pattern         
 1               	300         	                	;

[TANKS]
;ID              	Elevation   	InitLevel   	MinLevel    	MaxLevel    	Diameter    	MinVol      	VolCurve        	Overflow

[PIPES]
;ID              	Node1           	Node2           	Length      	Diameter    	Roughness   	MinorLoss   	Status
 1               	1               	2               	11600       	204         	100         	0           	Open  	;
 2               	2               	3               	19800       	204         	100         	0           	Open  	;
 3               	3               	4               	7300        	204         	100         	0           	Open  	;
 4               	4               	5               	8300        	204         	100         	0           	Open  	;
 5               	5               	6               	8600        	204         	100         	0           	Open  	;
 6               	6               	7               	19100       	204         	100         	0           	Open  	;
 7               	7               	8               	9600        	204         	100         	0           	Open  	;
 8               	8               	9               	12500       	204         	100         	0           	Open  	;
 9               	9               	10              	9600        	204         	100         	0           	Open  	;
 10              	9               	11              	11200       	204         	100         	0           	Open  	;
 11              	11              	12              	14500       	204         	100         	0           	Open  	;
 12              	12              	13              	12200       	204         	100         	0           	Open  	;
 13              	13              	14              	24100       	204         	100         	0           	Open  	;
 14              	14              	15              	21100       	204         	100         	0           	Open  	;
 15              	15              	1               	15500       	204         	100         	0           	Open  	;
 16              	10              	17              	26400       	204         	100         	0           	Open  	;
 17              	12              	18              	31200       	204         	100         	0           	Open  	;
 18              	18              	19              	24000       	204         	100         	0           	Open  	;
 19              	11              	20              	14400       	204         	100         	0           	Open  	;
 20              	20              	16              	38400       	204         	100         	0           	Open  	;
 21              	16              	9               	26400       	204         	100         	0           	Open  	;
 22              	1               	2               	11600       	180         	100         	0           	Open  	;
 23              	2               	3               	19800       	180         	100         	0           	Open  	;
 24              	3               	4               	7300        	180         	100         	0           	Open  	;
 25              	4               	5               	8300        	180         	100         	0           	Open  	;
 26              	5               	6               	8600        	180         	100         	0           	Open  	;
 27              	6               	7               	19100       	180         	100         	0           	Open  	;
 28              	7               	8               	9600        	132         	100         	0           	Open  	;
 29              	8               	9               	12500       	132         	100         	0           	Open  	;
 30              	9               	10              	9600        	180         	100         	0           	Open  	;
 31              	9               	11              	11200       	204         	100         	0           	Open  	;
 32              	11              	12              	14500       	204         	100         	0           	Open  	;
 33              	12              	13              	12200       	204         	100         	0           	Open  	;
 34              	13              	14              	24100       	204         	100         	0           	Open  	;
 35              	14              	15              	21100       	204         	100         	0           	Open  	;
 36              	15              	1               	15500       	204         	100         	0           	Open  	;
 37              	10              	17              	26400       	72          	100         	0           	Open  	;
 38              	12              	18              	31200       	72          	100         	0           	Open  	;
 39              	18              	19              	24000       	60          	100         	0           	Open  	;
 40              	11              	20              	14400       	60          	100         	0           	Open  	;
 41              	20              	16              	38400       	60          	100         	0           	Open  	;
 42              	16              	9               	26400       	72          	100         	0           	Open  	;

[PUMPS]
;ID              	Node1           	Node2           	Parameters

[VALVES]
;ID              	Node1           	Node2           	Diameter    	Type	Setting     	MinorLoss   

[TAGS]

[DEMANDS]
;Junction        	Demand      	Pattern         	Category

[STATUS]
;ID              	Status/Setting

[PATTERNS]
;ID              	Multipliers
;
 2               	1           
;
 1               	1           
;
 11              	1           
;
 ENRG1           	1           

[CURVES]
;ID              	X-Value     	Y-Value

[CONTROLS]

[RULES]

[ENERGY]
 Global Efficiency  	75
 Global Price       	0
 Global Pattern     	ENRG1
 Demand Charge      	0

[EMITTERS]
;Junction        	Coefficient

[QUALITY]
;Node            	InitQual
 1               	5

[SOURCES]
;Node            	Type        	Quality     	Pattern

[REACTIONS]
;Type     	Pipe/Tank       	Coefficient


[REACTIONS]
 Order Bulk            	1
 Order Tank            	1
 Order Wall            	1
 Global Bulk           	-1
 Global Wall           	0
 Limiting Potential    	0
 Roughness Correlation 	0

[MIXING]
;Tank            	Model

[TIMES]
 Duration           	72:00 
 Hydraulic Timestep 	1:00 
 Quality Timestep   	0:05 
 Pattern Timestep   	1:00 
 Pattern Start      	0:00
 Report Timestep    	1:00
 Report Start       	0:00
 Start ClockTime    	12 am
 Statistic          	None

[REPORT]
 Status             	Full
 Summary            	No
 Page               	0

[OPTIONS]
 Units              	CFS
 Headloss           	H-W
 Specific Gravity   	1
 Viscosity          	1
 Trials             	50
 Accuracy           	0.001
 CHECKFREQ          	2
 MAXCHECK           	10
 DAMPLIMIT          	0
 Unbalanced         	Continue 10
 Pattern            	1
 Demand Multiplier  	1.0
 Emitter Exponent   	0.5
 Quality            	CHLORINE mg/L
 Diffusivity        	1
 Tolerance          	0.01

[COORDINATES]
;Node            	X-Coord           	Y-Coord
2               	2998.420          	7784.000          
3               	2397.150          	6882.000          
4               	2143.990          	5933.000          
5               	2191.460          	5000.000          
6               	2254.750          	4082.000          
7               	2587.030          	3212.000          
8               	3077.530          	2436.000          
9               	4295.890          	2120.000          
10              	3963.610          	1471.000          
11              	5498.420          	2420.000          
12              	6194.620          	3275.000          
13              	6305.380          	4667.000          
14              	6020.570          	6234.000          
15              	5450.950          	7705.000          
16              	5577.530          	1234.000          
17              	3441.460          	743.000           
18              	7302.220          	3291.000          
19              	8488.920          	3354.000          
20              	6495.250          	1851.000          
1               	4280.060          	8544.000          

[VERTICES]
;Link            	X-Coord           	Y-Coord
1               	3473.100          	8354.430          
2               	2381.330          	7468.350          
3               	1954.110          	6455.700          
4               	1890.820          	5458.860          
5               	1938.290          	4572.780          
6               	2128.160          	3481.010          
7               	2444.620          	2642.410          
8               	3235.760          	1993.670          
9               	3868.670          	1787.970          
10              	4770.570          	2531.650          
11              	5577.530          	2974.680          
12              	5941.460          	4018.990          
13              	5751.580          	5490.510          
14              	5276.900          	6867.090          
15              	4454.110          	7848.100          
16              	3884.490          	1012.660          
17              	6716.770          	2958.860          
18              	7840.190          	3037.970          
19              	6257.910          	2389.240          
20              	6194.620          	1376.580          
21              	4865.510          	1424.050          

[LABELS]
;X-Coord             Y-Coord             Label & Anchor Node

[BACKDROP]
  DIMENSIONS  	1826.744          	352.950           	8806.167          	8934.050          
 UNITS          	None
 FILE           	
 OFFSET         	0.00            	0.00            

[END]
