[TITLE]


[JUNCTIONS]
;ID              	Elev        	Demand      	Pattern         
 O-AV-100        	964.6000    	0.000000    	1               	;
 I-AV-101        	994.1000    	0.000000    	1               	;
 O-AV-105        	987.5000    	0.000000    	1               	;
 O-AV-106        	990.8000    	0.000000    	1               	;
 I-AV-107        	981.0000    	0.000000    	1               	;
 O-AV-108        	951.4000    	0.000000    	1               	;
 I-AV-109        	935.0000    	0.000000    	1               	;
 O-AV-110        	948.2000    	0.000000    	1               	;
 I-AV-111        	935.0000    	0.000000    	1               	;
 I-AV-112        	1049.9000   	0.000000    	1               	;
 I-AV-113        	1003.9000   	0.000000    	1               	;
 O-AV-114        	925.2000    	0.000000    	1               	;
 O-AV-115        	925.2000    	0.000000    	1               	;
 O-AV-12         	967.9000    	0.000000    	1               	;
 O-AV-122        	984.3000    	0.000000    	1               	;
 I-AV-123        	981.0000    	0.000000    	1               	;
 I-AV-125        	967.9000    	0.000000    	1               	;
 I-AV-126        	902.2000    	0.000000    	1               	;
 I-AV-127        	908.8000    	0.000000    	1               	;
 O-AV-128        	925.2000    	0.000000    	1               	;
 O-AV-129        	925.2000    	0.000000    	1               	;
 I-AV-130        	938.3000    	0.000000    	1               	;
 I-AV-131        	935.0000    	0.000000    	1               	;
 I-AV-134        	948.2000    	0.000000    	1               	;
 O-AV-135        	1007.2000   	0.000000    	1               	;
 I-AV-136        	958.0000    	0.000000    	1               	;
 I-AV-137        	925.2000    	0.000000    	1               	;
 I-AV-138        	941.6000    	0.000000    	1               	;
 I-AV-139        	918.6000    	0.000000    	1               	;
 I-AV-142        	941.6000    	0.000000    	1               	;
 O-AV-143        	948.2000    	0.000000    	1               	;
 O-AV-144        	938.3000    	0.000000    	1               	;
 O-AV-145        	967.9000    	0.000000    	1               	;
 O-AV-146        	994.1000    	0.000000    	1               	;
 I-AV-147        	944.9000    	0.000000    	1               	;
 I-AV-149        	961.3000    	0.000000    	1               	;
 I-AV-150        	948.2000    	0.000000    	1               	;
 O-AV-152        	954.7000    	0.000000    	1               	;
 O-AV-153        	958.0000    	0.000000    	1               	;
 O-AV-155        	971.1000    	0.000000    	1               	;
 O-AV-156        	974.4000    	0.000000    	1               	;
 O-AV-158        	951.4000    	0.000000    	1               	;
 O-AV-16         	981.0000    	0.000000    	1               	;
 O-AV-160        	954.7000    	0.000000    	1               	;
 O-AV-162        	951.4000    	0.000000    	1               	;
 I-AV-163        	951.4000    	0.000000    	1               	;
 I-AV-165        	941.6000    	0.000000    	1               	;
 I-AV-166        	977.7000    	0.000000    	1               	;
 O-AV-168        	997.4000    	0.000000    	1               	;
 I-AV-169        	981.0000    	0.000000    	1               	;
 I-AV-170        	1007.2000   	0.000000    	1               	;
 I-AV-171        	984.3000    	0.000000    	1               	;
 I-AV-173        	1007.2000   	0.000000    	1               	;
 O-AV-174        	987.5000    	0.000000    	1               	;
 I-AV-175        	997.4000    	0.000000    	1               	;
 I-AV-177        	1010.5000   	0.000000    	1               	;
 I-AV-178        	1013.8000   	0.000000    	1               	;
 I-AV-179        	1020.3000   	0.000000    	1               	;
 I-AV-18         	948.2000    	0.000000    	1               	;
 I-AV-180        	1013.8000   	0.000000    	1               	;
 I-AV-181        	997.4000    	0.000000    	1               	;
 O-AV-183        	987.5000    	0.000000    	1               	;
 O-AV-185        	967.9000    	0.000000    	1               	;
 I-AV-186        	964.6000    	0.000000    	1               	;
 I-AV-189        	981.0000    	0.000000    	1               	;
 I-AV-190        	1003.9000   	0.000000    	1               	;
 I-AV-191        	961.3000    	0.000000    	1               	;
 O-AV-194        	1007.2000   	0.000000    	1               	;
 I-AV-195        	997.4000    	0.000000    	1               	;
 O-AV-196        	925.2000    	0.000000    	1               	;
 O-AV-198        	967.9000    	0.000000    	1               	;
 I-AV-199        	948.2000    	0.000000    	1               	;
 I-AV-200        	958.0000    	0.000000    	1               	;
 I-AV-201        	990.8000    	0.000000    	1               	;
 I-AV-203        	977.7000    	0.000000    	1               	;
 O-AV-204        	977.7000    	0.000000    	1               	;
 I-AV-205        	977.7000    	0.000000    	1               	;
 O-AV-206        	984.3000    	0.000000    	1               	;
 I-AV-208        	967.9000    	0.000000    	1               	;
 O-AV-209        	1000.7000   	0.000000    	1               	;
 I-AV-211        	971.1000    	0.000000    	1               	;
 I-AV-212        	990.8000    	0.000000    	1               	;
 I-AV-215        	997.4000    	0.000000    	1               	;
 O-AV-216        	974.4000    	0.000000    	1               	;
 I-AV-217        	987.5000    	0.000000    	1               	;
 O-AV-218        	1007.2000   	0.000000    	1               	;
 I-AV-219        	1007.2000   	0.000000    	1               	;
 I-AV-22         	954.7000    	0.000000    	1               	;
 I-AV-222        	1013.8000   	0.000000    	1               	;
 O-AV-223        	1049.9000   	0.000000    	1               	;
 O-AV-224        	990.8000    	0.000000    	1               	;
 I-AV-225        	997.4000    	0.000000    	1               	;
 I-AV-226        	1010.5000   	0.000000    	1               	;
 I-AV-228        	1017.1000   	0.000000    	1               	;
 I-AV-229        	1000.7000   	0.000000    	1               	;
 O-AV-231        	1017.1000   	0.000000    	1               	;
 O-AV-233        	977.7000    	0.000000    	1               	;
 O-AV-234        	981.0000    	0.000000    	1               	;
 I-AV-235        	1003.9000   	0.000000    	1               	;
 I-AV-236        	990.8000    	0.000000    	1               	;
 O-AV-237        	994.1000    	0.000000    	1               	;
 I-AV-238        	1007.2000   	0.000000    	1               	;
 I-AV-239        	1007.2000   	0.000000    	1               	;
 I-AV-241        	1017.1000   	0.000000    	1               	;
 O-AV-243        	974.4000    	0.000000    	1               	;
 I-AV-244        	987.5000    	0.000000    	1               	;
 O-AV-245        	961.3000    	0.000000    	1               	;
 O-AV-246        	1013.8000   	0.000000    	1               	;
 I-AV-25         	987.5000    	0.000000    	1               	;
 O-AV-250        	981.0000    	0.000000    	1               	;
 O-AV-252        	997.4000    	0.000000    	1               	;
 O-AV-253        	1013.8000   	0.000000    	1               	;
 O-AV-254        	977.7000    	0.000000    	1               	;
 O-AV-255        	1023.6000   	0.000000    	1               	;
 I-AV-256        	1017.1000   	0.000000    	1               	;
 I-AV-257        	1013.8000   	0.000000    	1               	;
 O-AV-258        	1003.9000   	0.000000    	1               	;
 I-AV-259        	1000.7000   	0.000000    	1               	;
 O-AV-26         	974.4000    	0.000000    	1               	;
 I-AV-260        	994.1000    	0.000000    	1               	;
 O-AV-261        	997.4000    	0.000000    	1               	;
 I-AV-262        	994.1000    	0.000000    	1               	;
 O-AV-263        	1000.7000   	0.000000    	1               	;
 I-AV-265        	990.8000    	0.000000    	1               	;
 O-AV-266        	984.3000    	0.000000    	1               	;
 O-AV-267        	987.5000    	0.000000    	1               	;
 I-AV-268        	1007.2000   	0.000000    	1               	;
 I-AV-269        	994.1000    	0.000000    	1               	;
 O-AV-27         	981.0000    	0.000000    	1               	;
 O-AV-271        	1007.2000   	0.000000    	1               	;
 O-AV-273        	1000.7000   	0.000000    	1               	;
 O-AV-274        	1003.9000   	0.000000    	1               	;
 O-AV-275        	1023.6000   	0.000000    	1               	;
 O-AV-276        	1003.9000   	0.000000    	1               	;
 O-AV-277        	1020.3000   	0.000000    	1               	;
 I-AV-279        	1010.5000   	0.000000    	1               	;
 I-AV-28         	964.6000    	0.000000    	1               	;
 O-AV-281        	974.4000    	0.000000    	1               	;
 O-AV-282        	984.3000    	0.000000    	1               	;
 O-AV-283        	981.0000    	0.000000    	1               	;
 O-AV-286        	987.5000    	0.000000    	1               	;
 I-AV-287        	974.4000    	0.000000    	1               	;
 I-AV-290        	1013.8000   	0.000000    	1               	;
 I-AV-291        	1000.7000   	0.000000    	1               	;
 O-AV-292        	984.3000    	0.000000    	1               	;
 O-AV-293        	990.8000    	0.000000    	1               	;
 O-AV-294        	1000.7000   	0.000000    	1               	;
 O-AV-296        	1013.8000   	0.000000    	1               	;
 O-AV-297        	990.8000    	0.000000    	1               	;
 I-AV-298        	987.5000    	0.000000    	1               	;
 O-AV-299        	964.6000    	0.000000    	1               	;
 I-AV-3          	948.2000    	0.000000    	1               	;
 I-AV-302        	1003.9000   	0.000000    	1               	;
 O-AV-305        	1010.5000   	0.000000    	1               	;
 O-AV-306        	1017.1000   	0.000000    	1               	;
 I-AV-307        	1017.1000   	0.000000    	1               	;
 O-AV-308        	1003.9000   	0.000000    	1               	;
 O-AV-31         	951.4000    	0.000000    	1               	;
 I-AV-310        	981.0000    	0.000000    	1               	;
 I-AV-312        	997.4000    	0.000000    	1               	;
 O-AV-313        	994.1000    	0.000000    	1               	;
 I-AV-315        	1000.7000   	0.000000    	1               	;
 I-AV-319        	990.8000    	0.000000    	1               	;
 O-AV-32         	961.3000    	0.000000    	1               	;
 O-AV-320        	997.4000    	0.000000    	1               	;
 O-AV-321        	984.3000    	0.000000    	1               	;
 O-AV-322        	987.5000    	0.000000    	1               	;
 I-AV-323        	1007.2000   	0.000000    	1               	;
 I-AV-325        	977.7000    	0.000000    	1               	;
 I-AV-327        	971.1000    	0.000000    	1               	;
 I-AV-330        	981.0000    	0.000000    	1               	;
 I-AV-334        	1040.0000   	0.000000    	1               	;
 O-AV-335        	994.1000    	0.000000    	1               	;
 O-AV-338        	990.8000    	0.000000    	1               	;
 I-AV-341        	977.7000    	0.000000    	1               	;
 O-AV-342        	974.4000    	0.000000    	1               	;
 O-AV-343        	974.4000    	0.000000    	1               	;
 I-AV-344        	981.0000    	0.000000    	1               	;
 I-AV-345        	987.5000    	0.000000    	1               	;
 O-AV-346        	1010.5000   	0.000000    	1               	;
 O-AV-348        	958.0000    	0.000000    	1               	;
 O-AV-349        	964.6000    	0.000000    	1               	;
 O-AV-352        	951.4000    	0.000000    	1               	;
 O-AV-354        	964.6000    	0.000000    	1               	;
 O-AV-355        	977.7000    	0.000000    	1               	;
 O-AV-357        	997.4000    	0.000000    	1               	;
 O-AV-358        	984.3000    	0.000000    	1               	;
 O-AV-359        	977.7000    	0.000000    	1               	;
 O-AV-36         	951.4000    	0.000000    	1               	;
 O-AV-360        	974.4000    	0.000000    	1               	;
 O-AV-361        	948.2000    	0.000000    	1               	;
 O-AV-363        	944.9000    	0.000000    	1               	;
 I-AV-364        	948.2000    	0.000000    	1               	;
 I-AV-366        	971.1000    	0.000000    	1               	;
 O-AV-369        	974.4000    	0.000000    	1               	;
 O-AV-37         	974.4000    	0.000000    	1               	;
 O-AV-370        	954.7000    	0.000000    	1               	;
 O-AV-371        	977.7000    	0.000000    	1               	;
 I-AV-372        	974.4000    	0.000000    	1               	;
 I-AV-374        	974.4000    	0.000000    	1               	;
 O-AV-375        	997.4000    	0.000000    	1               	;
 I-AV-376        	990.8000    	0.000000    	1               	;
 I-AV-377        	1013.8000   	0.000000    	1               	;
 O-AV-378        	987.5000    	0.000000    	1               	;
 O-AV-379        	948.2000    	0.000000    	1               	;
 I-AV-380        	1000.7000   	0.000000    	1               	;
 I-AV-381        	981.0000    	0.000000    	1               	;
 I-AV-382        	997.4000    	0.000000    	1               	;
 O-AV-383        	984.3000    	0.000000    	1               	;
 O-AV-384        	984.3000    	0.000000    	1               	;
 I-AV-385        	990.8000    	0.000000    	1               	;
 O-AV-388        	967.9000    	0.000000    	1               	;
 I-AV-389        	1010.5000   	0.000000    	1               	;
 O-AV-39         	971.1000    	0.000000    	1               	;
 I-AV-390        	958.0000    	0.000000    	1               	;
 I-AV-391        	1010.5000   	0.000000    	1               	;
 I-AV-393        	1003.9000   	0.000000    	1               	;
 O-AV-398        	1007.2000   	0.000000    	1               	;
 I-AV-40         	967.9000    	0.000000    	1               	;
 O-AV-401        	987.5000    	0.000000    	1               	;
 O-AV-402        	958.0000    	0.000000    	1               	;
 O-AV-403        	961.3000    	0.000000    	1               	;
 I-AV-404        	961.3000    	0.000000    	1               	;
 I-AV-405        	987.5000    	0.000000    	1               	;
 I-AV-406        	977.7000    	0.000000    	1               	;
 O-AV-407        	994.1000    	0.000000    	1               	;
 I-AV-408        	984.3000    	0.000000    	1               	;
 O-AV-409        	977.7000    	0.000000    	1               	;
 I-AV-41         	951.4000    	0.000000    	1               	;
 I-AV-413        	1003.9000   	0.000000    	1               	;
 O-AV-415        	997.4000    	0.000000    	1               	;
 O-AV-416        	1010.5000   	0.000000    	1               	;
 O-AV-417        	1003.9000   	0.000000    	1               	;
 I-AV-418        	1010.5000   	0.000000    	1               	;
 I-AV-419        	997.4000    	0.000000    	1               	;
 O-AV-421        	1003.9000   	0.000000    	1               	;
 I-AV-423        	984.3000    	0.000000    	1               	;
 O-AV-424        	1023.6000   	0.000000    	1               	;
 O-AV-425        	1013.8000   	0.000000    	1               	;
 O-AV-426        	1003.9000   	0.000000    	1               	;
 O-AV-429        	1023.6000   	0.000000    	1               	;
 I-AV-43         	958.0000    	0.000000    	1               	;
 I-AV-431        	1017.1000   	0.000000    	1               	;
 O-AV-432        	1013.8000   	0.000000    	1               	;
 I-AV-435        	1017.1000   	0.000000    	1               	;
 I-AV-436        	1007.2000   	0.000000    	1               	;
 I-AV-438        	1010.5000   	0.000000    	1               	;
 O-AV-44         	935.0000    	0.000000    	1               	;
 O-AV-440        	1026.9000   	0.000000    	1               	;
 I-AV-442        	1023.6000   	0.000000    	1               	;
 I-AV-444        	1026.9000   	0.000000    	1               	;
 O-AV-445        	1063.0000   	0.000000    	1               	;
 I-AV-446        	990.8000    	0.000000    	1               	;
 O-AV-450        	1040.0000   	0.000000    	1               	;
 I-AV-451        	1026.9000   	0.000000    	1               	;
 O-AV-452        	1003.9000   	0.000000    	1               	;
 O-AV-453        	1007.2000   	0.000000    	1               	;
 O-AV-454        	1010.5000   	0.000000    	1               	;
 O-AV-455        	990.8000    	0.000000    	1               	;
 I-AV-456        	1007.2000   	0.000000    	1               	;
 O-AV-46         	987.5000    	0.000000    	1               	;
 I-AV-460        	1000.7000   	0.000000    	1               	;
 O-AV-462        	1007.2000   	0.000000    	1               	;
 O-AV-465        	1013.8000   	0.000000    	1               	;
 O-AV-467        	1003.9000   	0.000000    	1               	;
 O-AV-469        	1023.6000   	0.000000    	1               	;
 I-AV-47         	990.8000    	0.000000    	1               	;
 O-AV-470        	1020.3000   	0.000000    	1               	;
 I-AV-471        	1033.5000   	0.000000    	1               	;
 O-AV-472        	1033.5000   	0.000000    	1               	;
 O-AV-473        	1043.3000   	0.000000    	1               	;
 I-AV-474        	1036.8000   	0.000000    	1               	;
 O-AV-475        	1020.3000   	0.000000    	1               	;
 O-AV-477        	1017.1000   	0.000000    	1               	;
 O-AV-478        	1013.8000   	0.000000    	1               	;
 I-AV-479        	994.1000    	0.000000    	1               	;
 I-AV-480        	1017.1000   	0.000000    	1               	;
 I-AV-481        	977.7000    	0.000000    	1               	;
 I-AV-482        	997.4000    	0.000000    	1               	;
 O-AV-483        	994.1000    	0.000000    	1               	;
 I-AV-485        	1000.7000   	0.000000    	1               	;
 I-AV-487        	1033.5000   	0.000000    	1               	;
 O-AV-488        	1026.9000   	0.000000    	1               	;
 O-AV-489        	1007.2000   	0.000000    	1               	;
 O-AV-49         	1007.2000   	0.000000    	1               	;
 O-AV-490        	1007.2000   	0.000000    	1               	;
 I-AV-493        	994.1000    	0.000000    	1               	;
 I-AV-494        	1003.9000   	0.000000    	1               	;
 I-AV-495        	1003.9000   	0.000000    	1               	;
 I-AV-496        	1007.2000   	0.000000    	1               	;
 O-AV-497        	987.5000    	0.000000    	1               	;
 O-AV-498        	951.4000    	0.000000    	1               	;
 O-AV-499        	951.4000    	0.000000    	1               	;
 I-AV-5          	951.4000    	0.000000    	1               	;
 I-AV-50         	1000.7000   	0.000000    	1               	;
 O-AV-503        	944.9000    	0.000000    	1               	;
 I-AV-505        	958.0000    	0.000000    	1               	;
 I-AV-506        	958.0000    	0.000000    	1               	;
 O-AV-507        	984.3000    	0.000000    	1               	;
 O-AV-509        	928.5000    	0.000000    	1               	;
 I-AV-51         	1013.8000   	0.000000    	1               	;
 I-AV-510        	958.0000    	0.000000    	1               	;
 O-AV-511        	928.5000    	0.000000    	1               	;
 I-AV-514        	941.6000    	0.000000    	1               	;
 O-AV-515        	971.1000    	0.000000    	1               	;
 I-AV-516        	990.8000    	0.000000    	1               	;
 O-AV-518        	1010.5000   	0.000000    	1               	;
 O-AV-519        	997.4000    	0.000000    	1               	;
 O-AV-52         	987.5000    	0.000000    	1               	;
 I-AV-520        	994.1000    	0.000000    	1               	;
 I-AV-522        	984.3000    	0.000000    	1               	;
 O-AV-523        	1003.9000   	0.000000    	1               	;
 O-AV-524        	1007.2000   	0.000000    	1               	;
 O-AV-525        	1003.9000   	0.000000    	1               	;
 O-AV-526        	1000.7000   	0.000000    	1               	;
 O-AV-527        	1010.5000   	0.000000    	1               	;
 O-AV-528        	990.8000    	0.000000    	1               	;
 O-AV-529        	987.5000    	0.000000    	1               	;
 I-AV-530        	938.3000    	0.000000    	1               	;
 O-AV-531        	961.3000    	0.000000    	1               	;
 I-AV-532        	935.0000    	0.000000    	1               	;
 I-AV-533        	918.6000    	0.000000    	1               	;
 O-AV-534        	990.8000    	0.000000    	1               	;
 O-AV-535        	928.5000    	0.000000    	1               	;
 I-AV-536        	938.3000    	0.000000    	1               	;
 I-AV-537        	958.0000    	0.000000    	1               	;
 I-AV-539        	931.8000    	0.000000    	1               	;
 I-AV-540        	928.5000    	0.000000    	1               	;
 I-AV-541        	928.5000    	0.000000    	1               	;
 O-AV-542        	967.9000    	0.000000    	1               	;
 O-AV-543        	931.8000    	0.000000    	1               	;
 O-AV-545        	984.3000    	0.000000    	1               	;
 I-AV-546        	931.8000    	0.000000    	1               	;
 I-AV-548        	944.9000    	0.000000    	1               	;
 I-AV-549        	948.2000    	0.000000    	1               	;
 O-AV-55         	1013.8000   	0.000000    	1               	;
 I-AV-550        	951.4000    	0.000000    	1               	;
 I-AV-551        	938.3000    	0.000000    	1               	;
 I-AV-552        	977.7000    	0.000000    	1               	;
 I-AV-554        	981.0000    	0.000000    	1               	;
 I-AV-557        	990.8000    	0.000000    	1               	;
 O-AV-559        	977.7000    	0.000000    	1               	;
 I-AV-56         	1003.9000   	0.000000    	1               	;
 O-AV-562        	971.1000    	0.000000    	1               	;
 O-AV-563        	964.6000    	0.000000    	1               	;
 O-AV-564        	941.6000    	0.000000    	1               	;
 O-AV-568        	994.1000    	0.000000    	1               	;
 O-AV-569        	951.4000    	0.000000    	1               	;
 I-AV-57         	1013.8000   	0.000000    	1               	;
 I-AV-572        	958.0000    	0.000000    	1               	;
 O-AV-574        	964.6000    	0.000000    	1               	;
 O-AV-576        	938.3000    	0.000000    	1               	;
 I-AV-577        	964.6000    	0.000000    	1               	;
 O-AV-579        	987.5000    	0.000000    	1               	;
 I-AV-58         	1003.9000   	0.000000    	1               	;
 I-AV-581        	925.2000    	0.000000    	1               	;
 I-AV-582        	905.5000    	0.000000    	1               	;
 I-AV-583        	905.5000    	0.000000    	1               	;
 O-AV-584        	912.1000    	0.000000    	1               	;
 O-AV-585        	935.0000    	0.000000    	1               	;
 I-AV-586        	931.8000    	0.000000    	1               	;
 I-AV-589        	921.9000    	0.000000    	1               	;
 O-AV-590        	984.3000    	0.000000    	1               	;
 I-AV-591        	902.2000    	0.000000    	1               	;
 I-AV-593        	918.6000    	0.000000    	1               	;
 I-AV-594        	967.9000    	0.000000    	1               	;
 I-AV-595        	964.6000    	0.000000    	1               	;
 O-AV-597        	964.6000    	0.000000    	1               	;
 I-AV-598        	921.9000    	0.000000    	1               	;
 O-AV-599        	931.8000    	0.000000    	1               	;
 I-AV-6          	944.9000    	0.000000    	1               	;
 I-AV-60         	1013.8000   	0.000000    	1               	;
 I-AV-600        	948.2000    	0.000000    	1               	;
 I-AV-603        	885.8000    	0.000000    	1               	;
 O-AV-604        	912.1000    	0.000000    	1               	;
 O-AV-605        	885.8000    	0.000000    	1               	;
 O-AV-606        	908.8000    	0.000000    	1               	;
 O-AV-609        	905.5000    	0.000000    	1               	;
 O-AV-61         	1010.5000   	0.000000    	1               	;
 I-AV-611        	961.3000    	0.000000    	1               	;
 O-AV-613        	944.9000    	0.000000    	1               	;
 O-AV-616        	938.3000    	0.000000    	1               	;
 I-AV-617        	935.0000    	0.000000    	1               	;
 I-AV-618        	938.3000    	0.000000    	1               	;
 I-AV-619        	941.6000    	0.000000    	1               	;
 O-AV-62         	990.8000    	0.000000    	1               	;
 O-AV-621        	944.9000    	0.000000    	1               	;
 I-AV-622        	964.6000    	0.000000    	1               	;
 O-AV-624        	971.1000    	0.000000    	1               	;
 I-AV-625        	967.9000    	0.000000    	1               	;
 O-AV-627        	974.4000    	0.000000    	1               	;
 I-AV-628        	977.7000    	0.000000    	1               	;
 I-AV-630        	971.1000    	0.000000    	1               	;
 O-AV-631        	974.4000    	0.000000    	1               	;
 O-AV-632        	977.7000    	0.000000    	1               	;
 I-AV-633        	977.7000    	0.000000    	1               	;
 O-AV-634        	938.3000    	0.000000    	1               	;
 O-AV-635        	938.3000    	0.000000    	1               	;
 O-AV-636        	948.2000    	0.000000    	1               	;
 I-AV-637        	964.6000    	0.000000    	1               	;
 I-AV-638        	961.3000    	0.000000    	1               	;
 O-AV-64         	1003.9000   	0.000000    	1               	;
 I-AV-641        	1040.0000   	0.000000    	1               	;
 I-AV-642        	1026.9000   	0.000000    	1               	;
 O-AV-643        	1007.2000   	0.000000    	1               	;
 I-AV-646        	1056.4000   	0.000000    	1               	;
 I-AV-647        	1000.7000   	0.000000    	1               	;
 I-AV-648        	987.5000    	0.000000    	1               	;
 I-AV-649        	987.5000    	0.000000    	1               	;
 I-AV-650        	1010.5000   	0.000000    	1               	;
 I-AV-654        	974.4000    	0.000000    	1               	;
 I-AV-655        	984.3000    	0.000000    	1               	;
 I-AV-656        	941.6000    	0.000000    	1               	;
 I-AV-657        	961.3000    	0.000000    	1               	;
 O-AV-659        	928.5000    	0.000000    	1               	;
 O-AV-66         	1010.5000   	0.000000    	1               	;
 I-AV-660        	964.6000    	0.000000    	1               	;
 I-AV-661        	961.3000    	0.000000    	1               	;
 O-AV-662        	977.7000    	0.000000    	1               	;
 O-AV-663        	984.3000    	0.000000    	1               	;
 I-AV-665        	954.7000    	0.000000    	1               	;
 O-AV-666        	1020.3000   	0.000000    	1               	;
 I-AV-667        	987.5000    	0.000000    	1               	;
 O-AV-669        	951.4000    	0.000000    	1               	;
 O-AV-67         	997.4000    	0.000000    	1               	;
 O-AV-671        	954.7000    	0.000000    	1               	;
 O-AV-672        	958.0000    	0.000000    	1               	;
 O-AV-674        	921.9000    	0.000000    	1               	;
 O-AV-675        	948.2000    	0.000000    	1               	;
 I-AV-677        	912.1000    	0.000000    	1               	;
 O-AV-678        	974.4000    	0.000000    	1               	;
 I-AV-679        	954.7000    	0.000000    	1               	;
 I-AV-680        	974.4000    	0.000000    	1               	;
 I-AV-681        	879.3000    	0.000000    	1               	;
 O-AV-682        	958.0000    	0.000000    	1               	;
 I-AV-683        	889.1000    	0.000000    	1               	;
 O-AV-684        	899.0000    	0.000000    	1               	;
 O-AV-685        	961.3000    	0.000000    	1               	;
 O-AV-686        	981.0000    	0.000000    	1               	;
 O-AV-688        	892.4000    	0.000000    	1               	;
 I-AV-689        	977.7000    	0.000000    	1               	;
 I-AV-691        	981.0000    	0.000000    	1               	;
 I-AV-692        	964.6000    	0.000000    	1               	;
 O-AV-693        	915.4000    	0.000000    	1               	;
 O-AV-694        	921.9000    	0.000000    	1               	;
 O-AV-695        	918.6000    	0.000000    	1               	;
 I-AV-696        	908.8000    	0.000000    	1               	;
 I-AV-7          	935.0000    	0.000000    	1               	;
 O-AV-701        	974.4000    	0.000000    	1               	;
 I-AV-703        	944.9000    	0.000000    	1               	;
 O-AV-704        	951.4000    	0.000000    	1               	;
 I-AV-705        	948.2000    	0.000000    	1               	;
 O-AV-706        	1010.5000   	0.000000    	1               	;
 O-AV-707        	1023.6000   	0.000000    	1               	;
 I-AV-709        	1030.2000   	0.000000    	1               	;
 I-AV-710        	1020.3000   	0.000000    	1               	;
 I-AV-711        	971.1000    	0.000000    	1               	;
 O-AV-713        	1023.6000   	0.000000    	1               	;
 I-AV-714        	1030.2000   	0.000000    	1               	;
 I-AV-716        	974.4000    	0.000000    	1               	;
 O-AV-717        	990.8000    	0.000000    	1               	;
 I-AV-718        	981.0000    	0.000000    	1               	;
 I-AV-720        	977.7000    	0.000000    	1               	;
 I-AV-721        	967.9000    	0.000000    	1               	;
 I-AV-722        	938.3000    	0.000000    	1               	;
 I-AV-73         	1007.2000   	0.000000    	1               	;
 I-AV-730        	951.4000    	0.000000    	1               	;
 O-AV-731        	984.3000    	0.000000    	1               	;
 I-AV-733        	981.0000    	0.000000    	1               	;
 I-AV-735        	954.7000    	0.000000    	1               	;
 I-AV-736        	944.9000    	0.000000    	1               	;
 O-AV-737        	974.4000    	0.000000    	1               	;
 O-AV-738        	964.6000    	0.000000    	1               	;
 I-AV-739        	944.9000    	0.000000    	1               	;
 I-AV-74         	994.1000    	0.000000    	1               	;
 I-AV-740        	941.6000    	0.000000    	1               	;
 O-AV-78         	997.4000    	0.000000    	1               	;
 I-AV-8          	935.0000    	0.000000    	1               	;
 O-AV-80         	987.5000    	0.000000    	1               	;
 O-AV-82         	964.6000    	0.000000    	1               	;
 I-AV-84         	997.4000    	0.000000    	1               	;
 O-AV-85         	1007.2000   	0.000000    	1               	;
 I-AV-86         	981.0000    	0.000000    	1               	;
 I-AV-89         	967.9000    	0.000000    	1               	;
 I-AV-91         	981.0000    	0.000000    	1               	;
 I-AV-93         	971.1000    	0.000000    	1               	;
 I-AV-94         	967.9000    	0.000000    	1               	;
 I-AV-99         	981.0000    	0.000000    	1               	;
 J-1             	1002.9700   	0.920000    	1               	;
 J-10            	979.6668    	0.520000    	1               	;
 J-100           	956.1092    	0.360000    	1               	;
 J-1000          	972.1188    	0.540000    	1               	;
 J-1001          	967.6031    	0.650000    	1               	;
 J-1002          	933.9637    	0.500000    	1               	;
 J-1003          	983.7909    	1.120000    	1               	;
 J-1004          	960.6658    	2.610000    	1               	;
 J-1005          	973.2756    	0.150000    	1               	;
 J-1006          	993.1291    	1.260000    	1               	;
 J-1007          	1002.3630   	0.230000    	1               	;
 J-1008          	979.3283    	0.000000    	1               	;
 J-1009          	942.0645    	1.940000    	1               	;
 J-101           	976.5272    	0.620000    	1               	;
 J-1010          	965.8110    	0.960000    	1               	;
 J-1011          	1002.5740   	1.470000    	1               	;
 J-1012          	920.1646    	1.090000    	1               	;
 J-1013          	916.7900    	3.180000    	1               	;
 J-1014          	952.9443    	0.820000    	1               	;
 J-1015          	958.7740    	0.550000    	1               	;
 J-1016          	999.0527    	0.540000    	1               	;
 J-1017          	951.9656    	9.130000    	1               	;
 J-1018          	1001.1020   	1.560000    	1               	;
 J-1019          	983.7080    	0.730000    	1               	;
 J-102           	992.2281    	1.660000    	1               	;
 J-1020          	971.7684    	1.980000    	1               	;
 J-1021          	982.0586    	0.880000    	1               	;
 J-1022          	997.4865    	0.890000    	1               	;
 J-1023          	994.5577    	0.970000    	1               	;
 J-1024          	946.5315    	0.270000    	1               	;
 J-1025          	959.2247    	1.060000    	1               	;
 J-1026          	949.9792    	0.530000    	1               	;
 J-1027          	960.2643    	1.510000    	1               	;
 J-1028          	981.3967    	0.610000    	1               	;
 J-1029          	916.7931    	0.820000    	1               	;
 J-103           	1012.9230   	2.110000    	1               	;
 J-1030          	913.7842    	0.210000    	1               	;
 J-1031          	949.2464    	2.270000    	1               	;
 J-1032          	924.4985    	0.840000    	1               	;
 J-1033          	988.0477    	1.340000    	1               	;
 J-1034          	1026.6520   	0.290000    	1               	;
 J-1035          	958.2108    	2.330000    	1               	;
 J-1036          	977.0811    	2.110000    	1               	;
 J-1037          	946.2034    	1.810000    	1               	;
 J-1038          	987.3462    	1.190000    	1               	;
 J-1039          	937.6068    	0.570000    	1               	;
 J-104           	971.9023    	1.870000    	1               	;
 J-1040          	920.8923    	2.160000    	1               	;
 J-1041          	967.1247    	0.300000    	1               	;
 J-1042          	942.6869    	0.670000    	1               	;
 J-1043          	985.2496    	0.410000    	1               	;
 J-1044          	978.2369    	0.480000    	1               	;
 J-1045          	934.0785    	1.270000    	1               	;
 J-1046          	975.2743    	2.570000    	1               	;
 J-1047          	964.8017    	1.640000    	1               	;
 J-1048          	1005.3770   	0.710000    	1               	;
 J-1049          	956.8696    	0.910000    	1               	;
 J-105           	991.9036    	1.340000    	1               	;
 J-1050          	978.6112    	0.720000    	1               	;
 J-1051          	1014.9040   	1.730000    	1               	;
 J-1052          	996.6636    	2.020000    	1               	;
 J-1053          	1004.3880   	1.140000    	1               	;
 J-1054          	931.2023    	0.360000    	1               	;
 J-1055          	925.3909    	2.240000    	1               	;
 J-1056          	953.7402    	2.590000    	1               	;
 J-1057          	941.5421    	0.740000    	1               	;
 J-1058          	973.5477    	2.180000    	1               	;
 J-1059          	964.7429    	0.980000    	1               	;
 J-106           	960.9750    	0.900000    	1               	;
 J-1060          	1003.8650   	0.910000    	1               	;
 J-1061          	1041.3950   	0.410000    	1               	;
 J-1062          	974.0029    	0.920000    	1               	;
 J-1063          	975.1185    	2.200000    	1               	;
 J-1064          	989.3430    	0.550000    	1               	;
 J-1065          	997.9887    	1.110000    	1               	;
 J-1066          	939.9678    	1.200000    	1               	;
 J-1067          	906.6779    	0.950000    	1               	;
 J-1068          	918.0988    	0.290000    	1               	;
 J-1069          	1015.9030   	0.750000    	1               	;
 J-107           	1001.2600   	2.700000    	1               	;
 J-1070          	1018.2510   	1.440000    	1               	;
 J-1071          	986.2827    	1.240000    	1               	;
 J-1072          	963.1724    	1.850000    	1               	;
 J-1073          	994.2034    	0.420000    	1               	;
 J-1074          	1032.6850   	1.760000    	1               	;
 J-1075          	995.5018    	1.540000    	1               	;
 J-1076          	1005.2110   	1.220000    	1               	;
 J-1077          	975.1523    	1.340000    	1               	;
 J-1078          	931.0073    	3.760000    	1               	;
 J-1079          	986.9286    	2.460000    	1               	;
 J-108           	990.5401    	1.840000    	1               	;
 J-1080          	956.6635    	1.720000    	1               	;
 J-1081          	944.1874    	1.170000    	1               	;
 J-1082          	958.9731    	1.510000    	1               	;
 J-1083          	930.3757    	0.960000    	1               	;
 J-1084          	957.0897    	0.000000    	1               	;
 J-1085          	1001.3490   	0.110000    	1               	;
 J-1086          	970.9494    	1.540000    	1               	;
 J-1087          	1007.0230   	1.110000    	1               	;
 J-1088          	1017.0230   	1.570000    	1               	;
 J-1089          	980.9498    	0.430000    	1               	;
 J-109           	998.2533    	1.720000    	1               	;
 J-1090          	980.9944    	0.460000    	1               	;
 J-1091          	1005.1560   	0.940000    	1               	;
 J-1092          	925.4380    	1.640000    	1               	;
 J-1093          	941.1719    	0.350000    	1               	;
 J-1094          	950.7923    	0.880000    	1               	;
 J-1095          	1030.1070   	0.550000    	1               	;
 J-1096          	963.2252    	0.460000    	1               	;
 J-1097          	953.9495    	0.230000    	1               	;
 J-1098          	999.4023    	1.500000    	1               	;
 J-1099          	957.4346    	0.130000    	1               	;
 J-11            	973.3596    	3.840000    	1               	;
 J-110           	990.6684    	0.760000    	1               	;
 J-1100          	950.3278    	1.020000    	1               	;
 J-1101          	926.8498    	1.260000    	1               	;
 J-1102          	1004.6190   	0.490000    	1               	;
 J-1103          	1004.2320   	1.220000    	1               	;
 J-1104          	989.4683    	0.240000    	1               	;
 J-1105          	980.8552    	0.370000    	1               	;
 J-1106          	958.5110    	0.430000    	1               	;
 J-1107          	956.5433    	0.300000    	1               	;
 J-1108          	1004.5190   	2.260000    	1               	;
 J-1109          	1009.7950   	1.570000    	1               	;
 J-111           	991.2919    	0.110000    	1               	;
 J-1110          	966.8722    	0.680000    	1               	;
 J-1111          	950.9268    	0.460000    	1               	;
 J-1112          	988.2986    	0.640000    	1               	;
 J-1113          	1001.3640   	0.460000    	1               	;
 J-1114          	1014.7880   	0.960000    	1               	;
 J-1115          	964.4872    	0.350000    	1               	;
 J-1116          	991.4536    	1.350000    	1               	;
 J-1117          	990.4918    	0.730000    	1               	;
 J-1118          	997.3438    	0.460000    	1               	;
 J-1119          	970.6922    	2.170000    	1               	;
 J-112           	974.1344    	2.600000    	1               	;
 J-1120          	1017.8430   	1.740000    	1               	;
 J-1121          	961.7057    	0.740000    	1               	;
 J-1122          	944.0974    	1.880000    	1               	;
 J-1123          	964.3712    	0.590000    	1               	;
 J-1124          	954.4607    	0.480000    	1               	;
 J-1125          	957.1547    	0.000000    	1               	;
 J-1126          	1004.4980   	0.910000    	1               	;
 J-1127          	999.8121    	0.700000    	1               	;
 J-1128          	956.3874    	1.960000    	1               	;
 J-1129          	982.9026    	1.170000    	1               	;
 J-113           	927.1782    	1.130000    	1               	;
 J-1130          	985.4974    	0.200000    	1               	;
 J-1131          	938.6133    	0.520000    	1               	;
 J-1132          	950.8669    	2.670000    	1               	;
 J-1133          	967.3861    	0.490000    	1               	;
 J-1134          	1000.2760   	0.440000    	1               	;
 J-1135          	989.1021    	0.190000    	1               	;
 J-1136          	995.6379    	1.010000    	1               	;
 J-1137          	975.0519    	1.600000    	1               	;
 J-1138          	991.8292    	0.880000    	1               	;
 J-1139          	983.3718    	1.180000    	1               	;
 J-114           	948.9658    	2.500000    	1               	;
 J-1140          	980.1962    	3.450000    	1               	;
 J-1141          	968.5593    	0.000000    	1               	;
 J-1142          	983.3204    	0.630000    	1               	;
 J-1143          	997.9429    	1.000000    	1               	;
 J-1144          	983.7407    	0.100000    	1               	;
 J-1145          	979.3095    	0.000000    	1               	;
 J-1146          	937.1878    	0.470000    	1               	;
 J-1147          	961.5646    	0.900000    	1               	;
 J-1148          	978.7356    	1.060000    	1               	;
 J-1149          	967.9286    	0.190000    	1               	;
 J-115           	927.1988    	0.610000    	1               	;
 J-1150          	966.0347    	0.160000    	1               	;
 J-1151          	979.8522    	0.650000    	1               	;
 J-1152          	930.2170    	1.320000    	1               	;
 J-1153          	978.4308    	0.540000    	1               	;
 J-1154          	1013.9920   	0.110000    	1               	;
 J-1155          	949.6728    	1.850000    	1               	;
 J-1156          	970.4050    	0.570000    	1               	;
 J-1157          	999.6797    	1.520000    	1               	;
 J-1158          	965.3118    	3.320000    	1               	;
 J-1159          	986.0013    	0.380000    	1               	;
 J-116           	962.9157    	0.860000    	1               	;
 J-1160          	1000.3600   	0.420000    	1               	;
 J-1161          	989.2116    	2.460000    	1               	;
 J-1162          	995.0939    	0.260000    	1               	;
 J-1163          	978.9081    	0.000000    	1               	;
 J-1164          	979.2819    	2.480000    	1               	;
 J-1165          	970.2353    	1.150000    	1               	;
 J-1166          	953.3029    	0.650000    	1               	;
 J-1167          	1039.6610   	1.860000    	1               	;
 J-1168          	1018.9190   	1.400000    	1               	;
 J-1169          	1038.9580   	0.390000    	1               	;
 J-117           	1007.4350   	0.690000    	1               	;
 J-1170          	976.4023    	1.190000    	1               	;
 J-1171          	969.3887    	0.520000    	1               	;
 J-1172          	938.2195    	1.020000    	1               	;
 J-1173          	1004.0120   	0.120000    	1               	;
 J-1174          	949.3094    	0.310000    	1               	;
 J-1175          	949.6328    	0.310000    	1               	;
 J-1176          	970.5121    	0.110000    	1               	;
 J-1177          	1001.5080   	0.970000    	1               	;
 J-1178          	1018.5630   	0.840000    	1               	;
 J-1179          	957.4712    	0.410000    	1               	;
 J-118           	935.8173    	0.410000    	1               	;
 J-1180          	1007.6910   	1.140000    	1               	;
 J-1181          	949.7055    	0.230000    	1               	;
 J-1182          	992.4955    	0.280000    	1               	;
 J-1183          	989.4885    	0.640000    	1               	;
 J-1184          	995.3223    	0.290000    	1               	;
 J-1185          	955.5746    	0.920000    	1               	;
 J-1186          	965.1296    	0.540000    	1               	;
 J-1187          	982.5637    	0.310000    	1               	;
 J-1188          	943.3073    	0.360000    	1               	;
 J-1189          	951.1948    	0.190000    	1               	;
 J-119           	929.3659    	1.190000    	1               	;
 J-1190          	960.8735    	1.740000    	1               	;
 J-1191          	977.3381    	4.260000    	1               	;
 J-1192          	949.0704    	1.310000    	1               	;
 J-1193          	966.6705    	1.210000    	1               	;
 J-1194          	961.7446    	0.190000    	1               	;
 J-1195          	958.9775    	1.710000    	1               	;
 J-1196          	1012.8900   	1.100000    	1               	;
 J-1197          	1001.6620   	1.120000    	1               	;
 J-1198          	977.4802    	0.550000    	1               	;
 J-1199          	944.6666    	1.320000    	1               	;
 J-12            	985.2566    	1.480000    	1               	;
 J-120           	980.2245    	6.290000    	1               	;
 J-1200          	1006.1300   	1.960000    	1               	;
 J-1201          	1001.5940   	0.520000    	1               	;
 J-1202          	977.3764    	0.000000    	1               	;
 J-1203          	967.2025    	1.610000    	1               	;
 J-1204          	956.3854    	0.850000    	1               	;
 J-1205          	992.1110    	1.420000    	1               	;
 J-1206          	999.2260    	0.650000    	1               	;
 J-1207          	1021.8660   	0.850000    	1               	;
 J-1208          	976.0049    	1.330000    	1               	;
 J-1209          	991.8210    	0.970000    	1               	;
 J-121           	955.6276    	4.700000    	1               	;
 J-1210          	909.9061    	1.650000    	1               	;
 J-1211          	910.0126    	3.170000    	1               	;
 J-1212          	992.6047    	1.140000    	1               	;
 J-1213          	983.9036    	0.470000    	1               	;
 J-1214          	989.1268    	0.190000    	1               	;
 J-1215          	961.8889    	0.400000    	1               	;
 J-1216          	1005.9270   	2.660000    	1               	;
 J-1217          	941.2625    	0.100000    	1               	;
 J-1218          	993.8394    	1.030000    	1               	;
 J-1219          	1015.8510   	0.900000    	1               	;
 J-122           	994.5997    	1.810000    	1               	;
 J-1220          	964.1030    	0.090000    	1               	;
 J-1221          	1043.4030   	3.270000    	1               	;
 J-1222          	978.7341    	2.400000    	1               	;
 J-1223          	972.4727    	2.470000    	1               	;
 J-1224          	979.4493    	0.340000    	1               	;
 J-1225          	1013.1630   	0.300000    	1               	;
 J-1226          	1011.7440   	1.060000    	1               	;
 J-1227          	965.2044    	1.530000    	1               	;
 J-1228          	1009.8910   	1.030000    	1               	;
 J-1229          	1033.9680   	4.830000    	1               	;
 J-123           	1003.2780   	4.370000    	1               	;
 J-1230          	1039.6020   	1.490000    	1               	;
 J-1231          	970.3848    	0.320000    	1               	;
 J-1232          	993.6591    	0.820000    	1               	;
 J-1233          	968.9734    	0.580000    	1               	;
 J-1234          	970.6243    	1.380000    	1               	;
 J-1235          	964.8383    	0.740000    	1               	;
 J-1236          	992.5005    	0.230000    	1               	;
 J-1237          	979.2516    	0.300000    	1               	;
 J-1238          	992.2137    	0.430000    	1               	;
 J-1239          	986.0309    	0.390000    	1               	;
 J-124           	1001.2060   	0.160000    	1               	;
 J-1240          	967.4946    	0.130000    	1               	;
 J-1241          	978.6226    	1.560000    	1               	;
 J-1242          	1006.5180   	1.670000    	1               	;
 J-1243          	992.1884    	0.380000    	1               	;
 J-1244          	1003.3680   	0.780000    	1               	;
 J-1245          	1002.8470   	0.240000    	1               	;
 J-1246          	981.4207    	2.670000    	1               	;
 J-1247          	994.4280    	0.840000    	1               	;
 J-1248          	932.2193    	0.620000    	1               	;
 J-1249          	925.4407    	2.100000    	1               	;
 J-125           	1002.9190   	2.740000    	1               	;
 J-1250          	939.2913    	1.390000    	1               	;
 J-1251          	953.8093    	2.010000    	1               	;
 J-1252          	943.8216    	0.560000    	1               	;
 J-1253          	978.0497    	1.550000    	1               	;
 J-1254          	1001.5600   	0.210000    	1               	;
 J-1255          	985.8475    	0.750000    	1               	;
 J-1256          	969.9594    	0.620000    	1               	;
 J-1257          	990.3142    	0.750000    	1               	;
 J-1258          	994.4700    	0.110000    	1               	;
 J-1259          	1014.1910   	1.910000    	1               	;
 J-126           	917.6212    	0.790000    	1               	;
 J-1260          	996.5742    	1.730000    	1               	;
 J-1261          	998.4230    	1.170000    	1               	;
 J-1262          	966.6713    	2.870000    	1               	;
 J-1263          	987.5566    	0.410000    	1               	;
 J-1264          	945.4722    	2.290000    	1               	;
 J-1265          	957.0461    	0.000000    	1               	;
 J-1266          	988.6458    	0.760000    	1               	;
 J-1267          	944.7103    	0.330000    	1               	;
 J-1268          	934.9223    	0.690000    	1               	;
 J-1269          	928.6105    	2.390000    	1               	;
 J-127           	936.5127    	0.590000    	1               	;
 J-1270          	901.2142    	2.940000    	1               	;
 J-1271          	973.7873    	0.000000    	1               	;
 J-1272          	959.0850    	1.020000    	1               	;
 J-1273          	977.0593    	1.960000    	1               	;
 J-1274          	1009.1230   	0.140000    	1               	;
 J-1275          	994.6277    	1.370000    	1               	;
 J-1276          	962.9375    	1.140000    	1               	;
 J-1277          	1002.2070   	0.290000    	1               	;
 J-1278          	1027.1230   	0.720000    	1               	;
 J-1279          	931.3522    	0.920000    	1               	;
 J-128           	936.4592    	0.270000    	1               	;
 J-1280          	931.4869    	0.450000    	1               	;
 J-1281          	1041.4120   	1.730000    	1               	;
 J-1282          	927.7090    	1.420000    	1               	;
 J-1283          	948.1352    	0.330000    	1               	;
 J-1284          	999.9688    	1.830000    	1               	;
 J-1285          	1004.9530   	2.070000    	1               	;
 J-1286          	980.4718    	0.270000    	1               	;
 J-1287          	953.7148    	0.240000    	1               	;
 J-1288          	902.9759    	0.710000    	1               	;
 J-1289          	996.6667    	1.420000    	1               	;
 J-129           	1000.8700   	0.330000    	1               	;
 J-1290          	974.6605    	1.180000    	1               	;
 J-1291          	911.8730    	0.300000    	1               	;
 J-1292          	989.5570    	0.400000    	1               	;
 J-1293          	970.0639    	1.130000    	1               	;
 J-1294          	949.8943    	0.560000    	1               	;
 J-1295          	1022.0480   	0.680000    	1               	;
 J-1296          	993.1304    	0.110000    	1               	;
 J-1297          	945.2074    	0.000000    	1               	;
 J-1298          	981.4892    	0.090000    	1               	;
 J-1299          	982.4128    	0.000000    	1               	;
 J-13            	919.0184    	2.300000    	1               	;
 J-130           	927.6636    	0.000000    	1               	;
 J-1300          	977.2169    	0.000000    	1               	;
 J-1301          	972.1398    	0.000000    	1               	;
 J-1302          	947.4169    	1.140000    	1               	;
 J-1303          	996.5115    	0.000000    	1               	;
 J-1304          	1003.6900   	0.000000    	1               	;
 J-1305          	1014.3210   	0.000000    	1               	;
 J-1306          	1015.5410   	0.000000    	1               	;
 J-1307          	991.6318    	0.000000    	1               	;
 J-1308          	998.0964    	0.000000    	1               	;
 J-1309          	997.2444    	0.000000    	1               	;
 J-131           	926.4938    	0.400000    	1               	;
 J-1310          	1014.2900   	0.000000    	1               	;
 J-1311          	1015.8650   	0.000000    	1               	;
 J-1312          	978.2070    	0.000000    	1               	;
 J-1313          	1005.7060   	0.000000    	1               	;
 J-1314          	948.9382    	0.000000    	1               	;
 J-1315          	957.6874    	0.000000    	1               	;
 J-1316          	998.4942    	0.000000    	1               	;
 J-1317          	923.0468    	0.000000    	1               	;
 J-1318          	928.7590    	0.000000    	1               	;
 J-1319          	928.2106    	0.000000    	1               	;
 J-132           	1014.8000   	2.030000    	1               	;
 J-1320          	1007.2000   	0.000000    	1               	;
 J-1321          	987.5000    	0.000000    	1               	;
 J-1322          	997.4000    	0.000000    	1               	;
 J-1323          	994.1000    	0.000000    	1               	;
 J-1324          	951.4000    	0.000000    	1               	;
 J-1325          	941.6000    	0.000000    	1               	;
 J-1326          	981.0000    	0.000000    	1               	;
 J-1327          	997.4000    	0.000000    	1               	;
 J-1328          	987.5000    	0.000000    	1               	;
 J-1329          	971.1000    	0.000000    	1               	;
 J-133           	959.2430    	2.680000    	1               	;
 J-1330          	971.1000    	0.000000    	1               	;
 J-1331          	971.1000    	0.000000    	1               	;
 J-1332          	948.2000    	0.000000    	1               	;
 J-1333          	948.2000    	0.000000    	1               	;
 J-1334          	1017.1000   	0.000000    	1               	;
 J-1335          	1010.5000   	0.000000    	1               	;
 J-1336          	938.3000    	0.000000    	1               	;
 J-1337          	1030.2000   	0.000000    	1               	;
 J-1338          	1003.9000   	0.000000    	1               	;
 J-1339          	1000.7000   	0.000000    	1               	;
 J-134           	954.6754    	0.400000    	1               	;
 J-1340          	1013.8000   	0.000000    	1               	;
 J-1341          	987.5000    	0.000000    	1               	;
 J-1342          	1007.2000   	0.000000    	1               	;
 J-1343          	1010.5000   	0.000000    	1               	;
 J-1344          	1010.5000   	0.000000    	1               	;
 J-1345          	1017.1000   	0.000000    	1               	;
 J-1346          	1026.9000   	0.000000    	1               	;
 J-1347          	1030.2000   	0.000000    	1               	;
 J-1348          	1017.1000   	0.000000    	1               	;
 J-1349          	948.2000    	0.000000    	1               	;
 J-135           	953.2007    	0.920000    	1               	;
 J-1350          	931.8000    	0.000000    	1               	;
 J-1351          	925.2000    	0.000000    	1               	;
 J-1352          	908.8000    	0.000000    	1               	;
 J-1353          	974.4000    	0.000000    	1               	;
 J-1354          	997.4000    	0.000000    	1               	;
 J-1355          	1000.7000   	0.000000    	1               	;
 J-1356          	948.2000    	0.000000    	1               	;
 J-1357          	948.2000    	0.000000    	1               	;
 J-1358          	961.3000    	0.000000    	1               	;
 J-1359          	971.1000    	0.000000    	1               	;
 J-136           	931.7145    	1.060000    	1               	;
 J-1360          	994.1000    	0.000000    	1               	;
 J-1361          	981.0000    	0.000000    	1               	;
 J-1362          	984.3000    	0.000000    	1               	;
 J-1363          	1013.8000   	0.000000    	1               	;
 J-1364          	994.1000    	0.000000    	1               	;
 J-1365          	1003.9000   	0.000000    	1               	;
 J-1366          	1010.5000   	0.000000    	1               	;
 J-1367          	1007.2000   	0.000000    	1               	;
 J-1368          	987.5000    	0.000000    	1               	;
 J-1369          	1003.9000   	0.000000    	1               	;
 J-137           	937.5491    	1.120000    	1               	;
 J-1370          	1026.9000   	0.000000    	1               	;
 J-1371          	1000.7000   	0.000000    	1               	;
 J-1372          	834.0000    	0.000000    	1               	;
 J-1373          	941.6000    	0.000000    	1               	;
 J-1374          	951.4000    	0.000000    	1               	;
 J-1375          	1017.1000   	0.000000    	1               	;
 J-1376          	1017.1000   	0.000000    	1               	;
 J-1377          	1020.3000   	0.000000    	1               	;
 J-1378          	1013.8000   	0.000000    	1               	;
 J-1379          	1007.2000   	0.000000    	1               	;
 J-138           	931.5330    	1.010000    	1               	;
 J-1380          	958.0000    	0.000000    	1               	;
 J-1381          	958.0000    	0.000000    	1               	;
 J-1382          	977.7000    	0.000000    	1               	;
 J-1383          	977.7000    	0.000000    	1               	;
 J-1384          	984.3000    	0.000000    	1               	;
 J-1385          	984.3000    	0.000000    	1               	;
 J-1386          	918.6000    	0.000000    	1               	;
 J-1387          	961.3000    	0.000000    	1               	;
 J-1388          	928.5000    	0.000000    	1               	;
 J-1389          	918.6000    	0.000000    	1               	;
 J-139           	927.8629    	0.420000    	1               	;
 J-1390          	921.9000    	0.000000    	1               	;
 J-1391          	915.4000    	0.000000    	1               	;
 J-1392          	944.9000    	0.000000    	1               	;
 J-1393          	938.3000    	0.000000    	1               	;
 J-1394          	944.9000    	0.000000    	1               	;
 J-1395          	951.4000    	0.000000    	1               	;
 J-1396          	928.5000    	0.000000    	1               	;
 J-1397          	931.8000    	0.000000    	1               	;
 J-1398          	935.0000    	0.000000    	1               	;
 J-1399          	951.4000    	0.000000    	1               	;
 J-14            	939.3245    	1.400000    	1               	;
 J-140           	955.7383    	0.990000    	1               	;
 J-1400          	967.9000    	0.000000    	1               	;
 J-1401          	987.5000    	0.000000    	1               	;
 J-1402          	958.0000    	0.000000    	1               	;
 J-1403          	938.3000    	0.000000    	1               	;
 J-1404          	1013.8000   	0.000000    	1               	;
 J-1405          	958.0000    	0.000000    	1               	;
 J-1406          	994.1000    	0.000000    	1               	;
 J-1407          	994.1000    	0.000000    	1               	;
 J-1408          	1003.9000   	0.000000    	1               	;
 J-1409          	997.4000    	0.000000    	1               	;
 J-141           	897.3025    	2.940000    	1               	;
 J-1410          	1000.7000   	0.000000    	1               	;
 J-1411          	1000.7000   	0.000000    	1               	;
 J-1412          	997.4000    	0.000000    	1               	;
 J-1413          	997.4000    	0.000000    	1               	;
 J-1414          	987.5000    	0.000000    	1               	;
 J-1415          	1013.8000   	0.000000    	1               	;
 J-1416          	987.5000    	0.000000    	1               	;
 J-1417          	967.9000    	0.000000    	1               	;
 J-1418          	971.1000    	0.000000    	1               	;
 J-1419          	974.4000    	0.000000    	1               	;
 J-142           	952.1076    	1.860000    	1               	;
 J-1420          	1000.7000   	0.000000    	1               	;
 J-1421          	1003.9000   	0.000000    	1               	;
 J-1422          	1020.3000   	0.000000    	1               	;
 J-1423          	994.1000    	0.000000    	1               	;
 J-1424          	997.4000    	0.000000    	1               	;
 J-1425          	1013.8000   	0.000000    	1               	;
 J-1426          	1000.7000   	0.000000    	1               	;
 J-1427          	987.5000    	0.000000    	1               	;
 J-1428          	967.9000    	0.000000    	1               	;
 J-1429          	990.8000    	0.000000    	1               	;
 J-143           	967.6666    	3.210000    	1               	;
 J-1430          	994.1000    	0.000000    	1               	;
 J-1431          	948.2000    	0.000000    	1               	;
 J-1432          	967.9000    	0.000000    	1               	;
 J-1433          	967.9000    	0.000000    	1               	;
 J-1434          	1033.5000   	0.000000    	1               	;
 J-1435          	1007.2000   	0.000000    	1               	;
 J-1436          	977.7000    	0.000000    	1               	;
 J-1437          	967.9000    	0.000000    	1               	;
 J-1438          	971.1000    	0.000000    	1               	;
 J-1439          	958.0000    	0.000000    	1               	;
 J-144           	952.8359    	2.500000    	1               	;
 J-1440          	941.6000    	0.000000    	1               	;
 J-1441          	1007.2000   	0.000000    	1               	;
 J-1442          	997.4000    	0.000000    	1               	;
 J-1443          	990.8000    	0.000000    	1               	;
 J-1444          	990.8000    	0.000000    	1               	;
 J-1445          	1036.8000   	0.000000    	1               	;
 J-1446          	1013.8000   	0.000000    	1               	;
 J-1447          	954.7000    	0.000000    	1               	;
 J-1448          	1007.2000   	0.000000    	1               	;
 J-1449          	1010.5000   	0.000000    	1               	;
 J-145           	905.4386    	0.920000    	1               	;
 J-1450          	948.2000    	0.000000    	1               	;
 J-1451          	935.0000    	0.000000    	1               	;
 J-1452          	1040.0000   	0.000000    	1               	;
 J-1453          	961.0000    	0.000000    	1               	;
 J-1454          	961.0000    	0.000000    	1               	;
 J-1455          	961.0000    	0.000000    	1               	;
 J-146           	968.6281    	0.500000    	1               	;
 J-147           	997.1206    	0.000000    	1               	;
 J-148           	976.4983    	1.780000    	1               	;
 J-149           	1001.5150   	3.370000    	1               	;
 J-15            	977.4283    	0.310000    	1               	;
 J-150           	1004.5300   	1.840000    	1               	;
 J-151           	933.3170    	1.790000    	1               	;
 J-152           	998.0096    	2.230000    	1               	;
 J-153           	987.4785    	1.680000    	1               	;
 J-154           	999.7343    	3.620000    	1               	;
 J-155           	981.0491    	1.380000    	1               	;
 J-156           	1001.6750   	0.500000    	1               	;
 J-157           	989.6042    	0.690000    	1               	;
 J-158           	993.0400    	1.120000    	1               	;
 J-159           	960.1518    	1.520000    	1               	;
 J-16            	977.3620    	0.440000    	1               	;
 J-160           	961.9720    	2.850000    	1               	;
 J-161           	1014.7010   	0.440000    	1               	;
 J-162           	956.3618    	0.140000    	1               	;
 J-163           	961.1016    	1.610000    	1               	;
 J-164           	965.6511    	1.780000    	1               	;
 J-165           	1026.6690   	4.380000    	1               	;
 J-166           	935.9556    	0.710000    	1               	;
 J-167           	967.0713    	2.230000    	1               	;
 J-168           	991.3670    	1.590000    	1               	;
 J-169           	984.3192    	2.550000    	1               	;
 J-17            	977.7300    	0.300000    	1               	;
 J-170           	980.4084    	0.220000    	1               	;
 J-171           	939.7405    	1.400000    	1               	;
 J-172           	930.7090    	1.300000    	1               	;
 J-173           	938.5123    	1.510000    	1               	;
 J-174           	999.4957    	1.430000    	1               	;
 J-175           	1006.2120   	0.930000    	1               	;
 J-176           	1004.6740   	1.510000    	1               	;
 J-177           	992.1135    	1.980000    	1               	;
 J-178           	1002.8790   	1.560000    	1               	;
 J-179           	1011.5990   	1.050000    	1               	;
 J-18            	943.7672    	1.070000    	1               	;
 J-180           	976.9026    	3.750000    	1               	;
 J-181           	967.2640    	3.810000    	1               	;
 J-182           	990.5605    	0.530000    	1               	;
 J-183           	978.0695    	2.090000    	1               	;
 J-184           	985.4453    	0.830000    	1               	;
 J-185           	1004.8410   	1.900000    	1               	;
 J-186           	1010.6850   	3.320000    	1               	;
 J-187           	928.3279    	1.680000    	1               	;
 J-188           	1007.3160   	0.900000    	1               	;
 J-189           	943.9777    	1.140000    	1               	;
 J-19            	945.4560    	2.570000    	1               	;
 J-190           	926.4111    	2.550000    	1               	;
 J-191           	959.9783    	2.170000    	1               	;
 J-192           	953.6035    	1.050000    	1               	;
 J-193           	980.7574    	2.160000    	1               	;
 J-194           	1002.0970   	1.660000    	1               	;
 J-195           	1009.8740   	1.260000    	1               	;
 J-196           	976.8041    	0.140000    	1               	;
 J-197           	977.5991    	0.090000    	1               	;
 J-198           	1006.6780   	0.000000    	1               	;
 J-199           	994.2180    	2.670000    	1               	;
 J-2             	1013.4440   	1.630000    	1               	;
 J-20            	935.2312    	2.930000    	1               	;
 J-200           	973.3180    	1.450000    	1               	;
 J-201           	1010.8330   	0.000000    	1               	;
 J-202           	1045.8410   	0.000000    	1               	;
 J-203           	956.3765    	1.390000    	1               	;
 J-204           	922.4658    	0.350000    	1               	;
 J-205           	934.4752    	0.920000    	1               	;
 J-206           	959.4948    	1.500000    	1               	;
 J-207           	949.7066    	1.580000    	1               	;
 J-208           	984.7419    	0.750000    	1               	;
 J-209           	982.9194    	1.200000    	1               	;
 J-21            	956.0571    	2.690000    	1               	;
 J-210           	945.6422    	0.890000    	1               	;
 J-211           	995.9433    	0.330000    	1               	;
 J-212           	951.6300    	0.530000    	1               	;
 J-213           	955.4329    	0.330000    	1               	;
 J-214           	1006.4210   	1.630000    	1               	;
 J-215           	988.3768    	1.410000    	1               	;
 J-216           	940.7040    	0.260000    	1               	;
 J-217           	971.3254    	0.620000    	1               	;
 J-218           	967.2204    	1.080000    	1               	;
 J-219           	924.0215    	1.530000    	1               	;
 J-22            	984.1351    	2.230000    	1               	;
 J-220           	995.2626    	1.860000    	1               	;
 J-221           	1003.7710   	0.960000    	1               	;
 J-222           	1004.1780   	1.960000    	1               	;
 J-223           	973.1974    	2.730000    	1               	;
 J-224           	1005.7160   	2.920000    	1               	;
 J-225           	998.5806    	2.830000    	1               	;
 J-226           	953.6805    	1.040000    	1               	;
 J-227           	948.8869    	0.480000    	1               	;
 J-228           	961.9694    	1.280000    	1               	;
 J-229           	894.8397    	2.480000    	1               	;
 J-23            	971.2469    	1.320000    	1               	;
 J-230           	979.7910    	0.610000    	1               	;
 J-231           	984.2581    	0.700000    	1               	;
 J-232           	958.1100    	0.770000    	1               	;
 J-233           	965.6917    	1.320000    	1               	;
 J-234           	975.8906    	3.800000    	1               	;
 J-235           	964.2112    	0.970000    	1               	;
 J-236           	986.8278    	2.410000    	1               	;
 J-237           	984.1649    	1.830000    	1               	;
 J-238           	1009.5730   	1.670000    	1               	;
 J-239           	1008.4420   	0.000000    	1               	;
 J-24            	922.2437    	1.900000    	1               	;
 J-240           	990.3167    	0.900000    	1               	;
 J-241           	1001.9270   	0.670000    	1               	;
 J-242           	868.4962    	9.180000    	1               	;
 J-243           	918.3853    	2.750000    	1               	;
 J-244           	950.9565    	2.390000    	1               	;
 J-245           	906.9763    	6.100000    	1               	;
 J-246           	907.5858    	1.060000    	1               	;
 J-247           	951.4333    	0.550000    	1               	;
 J-248           	964.6561    	1.210000    	1               	;
 J-249           	992.6504    	3.050000    	1               	;
 J-25            	922.4665    	2.310000    	1               	;
 J-250           	915.4000    	0.000000    	1               	;
 J-251           	975.0247    	1.280000    	1               	;
 J-252           	871.6448    	1.230000    	1               	;
 J-253           	964.9150    	2.610000    	1               	;
 J-254           	893.3716    	2.420000    	1               	;
 J-255           	968.5082    	1.720000    	1               	;
 J-256           	941.4952    	1.420000    	1               	;
 J-257           	966.1162    	1.040000    	1               	;
 J-258           	983.5428    	1.900000    	1               	;
 J-259           	966.8285    	0.830000    	1               	;
 J-26            	958.5306    	3.130000    	1               	;
 J-260           	922.1583    	0.870000    	1               	;
 J-261           	969.0532    	0.670000    	1               	;
 J-262           	968.0092    	1.300000    	1               	;
 J-263           	955.4261    	2.340000    	1               	;
 J-264           	957.6119    	0.960000    	1               	;
 J-265           	957.8082    	0.160000    	1               	;
 J-266           	983.5588    	1.190000    	1               	;
 J-267           	994.8738    	2.210000    	1               	;
 J-268           	984.3740    	0.000000    	1               	;
 J-269           	940.9149    	1.500000    	1               	;
 J-27            	948.2709    	0.430000    	1               	;
 J-270           	929.8690    	0.810000    	1               	;
 J-271           	953.8288    	0.290000    	1               	;
 J-272           	956.0044    	0.800000    	1               	;
 J-273           	950.0097    	1.420000    	1               	;
 J-274           	943.8389    	0.350000    	1               	;
 J-275           	957.0503    	0.920000    	1               	;
 J-276           	975.2864    	2.320000    	1               	;
 J-277           	974.2706    	2.060000    	1               	;
 J-278           	992.6700    	0.680000    	1               	;
 J-279           	962.8785    	0.680000    	1               	;
 J-28            	976.2681    	0.430000    	1               	;
 J-280           	978.2803    	1.300000    	1               	;
 J-281           	980.7221    	2.290000    	1               	;
 J-282           	957.5770    	2.390000    	1               	;
 J-283           	956.8646    	0.700000    	1               	;
 J-284           	1006.7530   	0.720000    	1               	;
 J-285           	1002.0840   	0.450000    	1               	;
 J-286           	977.4785    	1.120000    	1               	;
 J-287           	997.3879    	1.310000    	1               	;
 J-288           	962.7720    	0.330000    	1               	;
 J-289           	974.5946    	2.610000    	1               	;
 J-29            	1005.5180   	0.310000    	1               	;
 J-290           	968.0099    	1.530000    	1               	;
 J-291           	874.3233    	2.080000    	1               	;
 J-292           	890.4329    	2.150000    	1               	;
 J-293           	935.6721    	1.340000    	1               	;
 J-294           	942.2191    	2.830000    	1               	;
 J-295           	963.4302    	1.590000    	1               	;
 J-296           	943.3119    	2.240000    	1               	;
 J-297           	924.9673    	2.860000    	1               	;
 J-298           	921.5408    	2.340000    	1               	;
 J-299           	921.2364    	0.520000    	1               	;
 J-3             	948.0725    	0.470000    	1               	;
 J-30            	1011.2170   	2.040000    	1               	;
 J-300           	963.0144    	1.450000    	1               	;
 J-301           	950.3173    	2.280000    	1               	;
 J-302           	910.3911    	0.830000    	1               	;
 J-303           	895.6703    	1.030000    	1               	;
 J-304           	953.6496    	0.840000    	1               	;
 J-305           	999.1389    	1.930000    	1               	;
 J-306           	996.0826    	1.690000    	1               	;
 J-307           	991.3058    	1.170000    	1               	;
 J-308           	983.2426    	2.150000    	1               	;
 J-309           	999.7546    	0.860000    	1               	;
 J-31            	1014.4290   	3.250000    	1               	;
 J-310           	977.1906    	0.500000    	1               	;
 J-311           	982.8114    	0.350000    	1               	;
 J-312           	952.0522    	2.550000    	1               	;
 J-313           	966.7690    	1.690000    	1               	;
 J-314           	915.8222    	1.740000    	1               	;
 J-315           	920.8268    	1.560000    	1               	;
 J-316           	981.9182    	1.210000    	1               	;
 J-317           	971.2548    	4.000000    	1               	;
 J-318           	988.2610    	1.430000    	1               	;
 J-319           	997.0618    	1.740000    	1               	;
 J-32            	965.5231    	0.680000    	1               	;
 J-320           	983.0320    	1.990000    	1               	;
 J-321           	957.3658    	0.490000    	1               	;
 J-322           	987.8537    	3.110000    	1               	;
 J-323           	987.5000    	0.000000    	1               	;
 J-324           	977.0001    	1.350000    	1               	;
 J-325           	977.0001    	0.640000    	1               	;
 J-326           	1015.6120   	0.800000    	1               	;
 J-327           	946.1853    	0.720000    	1               	;
 J-328           	936.8224    	1.490000    	1               	;
 J-329           	982.4195    	2.730000    	1               	;
 J-33            	964.2664    	0.990000    	1               	;
 J-330           	996.5290    	1.280000    	1               	;
 J-331           	1006.4470   	1.000000    	1               	;
 J-332           	999.9435    	0.960000    	1               	;
 J-333           	962.7276    	2.290000    	1               	;
 J-334           	1007.5040   	3.800000    	1               	;
 J-335           	992.0033    	1.350000    	1               	;
 J-336           	994.5223    	2.730000    	1               	;
 J-337           	992.0061    	2.070000    	1               	;
 J-338           	949.1984    	1.170000    	1               	;
 J-339           	949.8472    	0.600000    	1               	;
 J-34            	1013.5890   	1.070000    	1               	;
 J-340           	998.1135    	1.310000    	1               	;
 J-341           	968.7280    	2.950000    	1               	;
 J-342           	992.2912    	1.210000    	1               	;
 J-343           	983.7371    	2.350000    	1               	;
 J-344           	975.1001    	2.930000    	1               	;
 J-345           	960.4846    	2.940000    	1               	;
 J-346           	1016.1170   	0.670000    	1               	;
 J-347           	1009.3170   	1.200000    	1               	;
 J-348           	979.0323    	0.450000    	1               	;
 J-349           	964.3492    	1.330000    	1               	;
 J-35            	1016.5080   	0.240000    	1               	;
 J-350           	1009.0730   	1.130000    	1               	;
 J-351           	961.4088    	1.350000    	1               	;
 J-352           	992.2293    	0.620000    	1               	;
 J-353           	920.5533    	1.610000    	1               	;
 J-354           	961.3860    	1.260000    	1               	;
 J-355           	1035.2240   	3.080000    	1               	;
 J-356           	924.4142    	2.130000    	1               	;
 J-357           	925.8769    	1.330000    	1               	;
 J-358           	998.6989    	1.370000    	1               	;
 J-359           	1003.4800   	1.040000    	1               	;
 J-36            	985.0263    	0.000000    	1               	;
 J-360           	934.9817    	0.820000    	1               	;
 J-361           	936.8458    	0.910000    	1               	;
 J-362           	986.9753    	1.540000    	1               	;
 J-363           	1002.1140   	1.790000    	1               	;
 J-364           	948.5294    	1.120000    	1               	;
 J-365           	991.6803    	0.000000    	1               	;
 J-366           	988.8966    	0.920000    	1               	;
 J-367           	960.8356    	0.790000    	1               	;
 J-368           	958.8862    	0.720000    	1               	;
 J-369           	981.5674    	1.390000    	1               	;
 J-37            	1021.1370   	2.560000    	1               	;
 J-370           	983.2837    	0.990000    	1               	;
 J-371           	958.4985    	2.510000    	1               	;
 J-372           	997.2181    	1.750000    	1               	;
 J-373           	1006.7120   	3.880000    	1               	;
 J-374           	999.3461    	3.470000    	1               	;
 J-375           	953.1638    	0.250000    	1               	;
 J-376           	954.0239    	0.550000    	1               	;
 J-377           	970.2153    	1.810000    	1               	;
 J-378           	942.9616    	4.860000    	1               	;
 J-379           	994.6887    	0.830000    	1               	;
 J-38            	1016.8590   	0.660000    	1               	;
 J-380           	1005.8110   	1.610000    	1               	;
 J-381           	988.3283    	3.300000    	1               	;
 J-382           	977.6478    	1.060000    	1               	;
 J-383           	986.8192    	0.720000    	1               	;
 J-384           	924.2747    	0.000000    	1               	;
 J-385           	954.1343    	0.670000    	1               	;
 J-386           	954.0417    	1.010000    	1               	;
 J-387           	983.0082    	1.660000    	1               	;
 J-388           	970.6646    	2.800000    	1               	;
 J-389           	957.3184    	0.740000    	1               	;
 J-39            	1015.0560   	0.970000    	1               	;
 J-390           	950.0828    	0.510000    	1               	;
 J-391           	979.9749    	3.000000    	1               	;
 J-392           	958.3466    	1.970000    	1               	;
 J-393           	956.9101    	2.000000    	1               	;
 J-394           	965.7910    	2.440000    	1               	;
 J-395           	959.3254    	2.370000    	1               	;
 J-396           	932.7084    	1.540000    	1               	;
 J-397           	918.9542    	1.490000    	1               	;
 J-398           	912.6294    	0.810000    	1               	;
 J-399           	977.4363    	1.420000    	1               	;
 J-4             	940.1657    	1.510000    	1               	;
 J-40            	1009.5880   	2.180000    	1               	;
 J-400           	990.0979    	0.980000    	1               	;
 J-401           	995.2279    	1.030000    	1               	;
 J-402           	929.5477    	1.230000    	1               	;
 J-403           	926.3748    	0.190000    	1               	;
 J-404           	937.5173    	0.610000    	1               	;
 J-405           	962.0308    	1.320000    	1               	;
 J-406           	1003.4340   	0.410000    	1               	;
 J-407           	1003.6200   	2.360000    	1               	;
 J-408           	944.8597    	0.790000    	1               	;
 J-409           	937.3330    	1.660000    	1               	;
 J-41            	936.9143    	1.990000    	1               	;
 J-410           	938.0657    	1.000000    	1               	;
 J-411           	964.3839    	1.390000    	1               	;
 J-412           	932.6244    	0.210000    	1               	;
 J-413           	936.9753    	0.610000    	1               	;
 J-414           	982.8208    	1.040000    	1               	;
 J-415           	965.1584    	1.320000    	1               	;
 J-416           	983.0715    	1.410000    	1               	;
 J-417           	1015.6200   	1.930000    	1               	;
 J-418           	1004.2160   	3.420000    	1               	;
 J-419           	970.9763    	2.150000    	1               	;
 J-42            	957.3114    	1.710000    	1               	;
 J-420           	960.1342    	0.480000    	1               	;
 J-421           	941.6971    	0.880000    	1               	;
 J-422           	945.1655    	1.580000    	1               	;
 J-423           	981.4760    	4.380000    	1               	;
 J-424           	941.4611    	2.420000    	1               	;
 J-425           	953.4139    	0.310000    	1               	;
 J-426           	976.5844    	0.610000    	1               	;
 J-427           	975.1506    	1.740000    	1               	;
 J-428           	1007.6700   	0.410000    	1               	;
 J-429           	1029.8010   	0.840000    	1               	;
 J-43            	975.5549    	0.950000    	1               	;
 J-430           	931.9258    	0.000000    	1               	;
 J-431           	982.5086    	1.640000    	1               	;
 J-432           	1003.0630   	2.080000    	1               	;
 J-433           	1011.3440   	1.010000    	1               	;
 J-434           	980.3665    	0.700000    	1               	;
 J-435           	984.1578    	3.360000    	1               	;
 J-436           	994.9829    	2.090000    	1               	;
 J-437           	964.7588    	0.520000    	1               	;
 J-438           	959.7708    	1.580000    	1               	;
 J-439           	957.4111    	0.660000    	1               	;
 J-44            	982.1862    	0.920000    	1               	;
 J-440           	956.5505    	0.700000    	1               	;
 J-441           	976.5009    	1.480000    	1               	;
 J-442           	937.8073    	2.790000    	1               	;
 J-443           	987.0471    	0.540000    	1               	;
 J-444           	982.8367    	2.040000    	1               	;
 J-445           	943.3094    	1.890000    	1               	;
 J-446           	910.0023    	0.890000    	1               	;
 J-447           	934.9163    	0.740000    	1               	;
 J-448           	894.3473    	1.690000    	1               	;
 J-449           	940.1245    	0.220000    	1               	;
 J-45            	976.1099    	2.040000    	1               	;
 J-450           	927.5958    	0.860000    	1               	;
 J-451           	996.5338    	2.140000    	1               	;
 J-452           	939.6385    	1.460000    	1               	;
 J-453           	927.0008    	2.010000    	1               	;
 J-454           	959.4675    	1.570000    	1               	;
 J-455           	941.1637    	0.910000    	1               	;
 J-456           	950.9476    	0.430000    	1               	;
 J-457           	961.4210    	1.430000    	1               	;
 J-458           	978.5811    	0.390000    	1               	;
 J-459           	970.7551    	1.560000    	1               	;
 J-46            	985.6562    	3.770000    	1               	;
 J-460           	1022.7060   	0.000000    	1               	;
 J-461           	1013.0880   	1.580000    	1               	;
 J-462           	965.3115    	0.860000    	1               	;
 J-463           	961.0451    	2.690000    	1               	;
 J-464           	971.1544    	0.380000    	1               	;
 J-465           	979.7235    	0.860000    	1               	;
 J-466           	928.4691    	3.870000    	1               	;
 J-467           	913.5308    	3.090000    	1               	;
 J-468           	993.1736    	2.710000    	1               	;
 J-469           	1001.6880   	1.900000    	1               	;
 J-47            	986.9058    	1.990000    	1               	;
 J-470           	976.8858    	1.310000    	1               	;
 J-471           	968.6103    	1.130000    	1               	;
 J-472           	974.2179    	1.710000    	1               	;
 J-473           	990.3994    	0.520000    	1               	;
 J-474           	880.5154    	1.180000    	1               	;
 J-475           	882.9431    	1.280000    	1               	;
 J-476           	985.8755    	1.090000    	1               	;
 J-477           	996.1769    	0.550000    	1               	;
 J-478           	959.9154    	0.400000    	1               	;
 J-479           	938.6354    	1.630000    	1               	;
 J-48            	964.9750    	1.490000    	1               	;
 J-480           	964.9067    	1.250000    	1               	;
 J-481           	940.5791    	0.780000    	1               	;
 J-482           	976.1575    	1.980000    	1               	;
 J-483           	955.1992    	1.130000    	1               	;
 J-484           	1015.4520   	1.860000    	1               	;
 J-485           	953.8619    	0.680000    	1               	;
 J-486           	960.9557    	1.010000    	1               	;
 J-487           	941.5955    	1.410000    	1               	;
 J-488           	1013.5040   	2.430000    	1               	;
 J-489           	1001.2680   	2.930000    	1               	;
 J-49            	1014.6090   	1.650000    	1               	;
 J-490           	970.7589    	0.200000    	1               	;
 J-491           	978.3851    	1.370000    	1               	;
 J-492           	957.0007    	1.050000    	1               	;
 J-493           	963.6227    	2.740000    	1               	;
 J-494           	976.6513    	1.340000    	1               	;
 J-495           	983.0294    	0.930000    	1               	;
 J-496           	995.0400    	1.470000    	1               	;
 J-497           	994.4650    	0.440000    	1               	;
 J-498           	984.1228    	0.910000    	1               	;
 J-499           	885.9337    	2.090000    	1               	;
 J-5             	1001.1740   	1.180000    	1               	;
 J-50            	1025.8420   	2.400000    	1               	;
 J-500           	898.8602    	2.210000    	1               	;
 J-501           	985.9727    	2.360000    	1               	;
 J-502           	977.2513    	0.710000    	1               	;
 J-503           	994.0742    	3.250000    	1               	;
 J-504           	980.3123    	0.970000    	1               	;
 J-505           	938.9274    	0.900000    	1               	;
 J-506           	956.5675    	2.790000    	1               	;
 J-507           	942.6520    	2.370000    	1               	;
 J-508           	940.2589    	0.580000    	1               	;
 J-509           	940.2670    	0.120000    	1               	;
 J-51            	955.2915    	0.340000    	1               	;
 J-510           	1007.1950   	2.220000    	1               	;
 J-511           	958.9321    	2.090000    	1               	;
 J-512           	954.4510    	1.960000    	1               	;
 J-513           	996.1532    	0.000000    	1               	;
 J-514           	994.0202    	0.000000    	1               	;
 J-515           	944.6588    	0.720000    	1               	;
 J-516           	1006.1000   	1.700000    	1               	;
 J-517           	996.6051    	0.890000    	1               	;
 J-518           	950.7784    	0.450000    	1               	;
 J-519           	934.6365    	1.820000    	1               	;
 J-52            	955.3356    	0.800000    	1               	;
 J-520           	920.7065    	1.320000    	1               	;
 J-521           	924.7111    	1.330000    	1               	;
 J-522           	963.3170    	0.230000    	1               	;
 J-523           	970.1417    	1.860000    	1               	;
 J-524           	990.6759    	0.620000    	1               	;
 J-525           	998.0724    	1.960000    	1               	;
 J-526           	969.1810    	4.080000    	1               	;
 J-527           	923.5334    	2.060000    	1               	;
 J-528           	949.6381    	1.800000    	1               	;
 J-529           	990.3937    	0.480000    	1               	;
 J-53            	990.4735    	0.240000    	1               	;
 J-530           	949.3356    	0.000000    	1               	;
 J-531           	967.6580    	2.290000    	1               	;
 J-532           	994.7773    	2.350000    	1               	;
 J-533           	1009.5600   	0.850000    	1               	;
 J-534           	1017.4680   	1.640000    	1               	;
 J-535           	976.1957    	2.190000    	1               	;
 J-536           	963.7415    	0.710000    	1               	;
 J-537           	963.5913    	0.660000    	1               	;
 J-538           	1008.3190   	0.230000    	1               	;
 J-539           	1004.7640   	1.840000    	1               	;
 J-54            	1025.1570   	3.340000    	1               	;
 J-540           	990.8185    	1.590000    	1               	;
 J-541           	991.7385    	0.770000    	1               	;
 J-542           	989.3306    	2.450000    	1               	;
 J-543           	996.3755    	1.220000    	1               	;
 J-544           	970.7191    	1.560000    	1               	;
 J-545           	957.5087    	0.320000    	1               	;
 J-546           	992.5596    	0.800000    	1               	;
 J-547           	996.0092    	2.510000    	1               	;
 J-548           	1017.8370   	1.250000    	1               	;
 J-549           	910.7335    	1.360000    	1               	;
 J-55            	996.0026    	1.720000    	1               	;
 J-550           	936.8753    	2.420000    	1               	;
 J-551           	902.0493    	1.120000    	1               	;
 J-552           	903.1258    	2.090000    	1               	;
 J-553           	986.9748    	2.740000    	1               	;
 J-554           	982.3529    	0.190000    	1               	;
 J-555           	1003.0190   	2.190000    	1               	;
 J-556           	938.0717    	0.720000    	1               	;
 J-557           	946.3090    	0.770000    	1               	;
 J-558           	912.6691    	1.900000    	1               	;
 J-559           	929.4227    	3.070000    	1               	;
 J-56            	1006.2850   	0.000000    	1               	;
 J-560           	979.5505    	1.800000    	1               	;
 J-561           	985.2803    	0.680000    	1               	;
 J-562           	998.7845    	3.910000    	1               	;
 J-563           	1011.0490   	2.940000    	1               	;
 J-564           	995.7054    	1.820000    	1               	;
 J-565           	957.5446    	0.610000    	1               	;
 J-566           	1012.7340   	0.000000    	1               	;
 J-567           	958.3201    	2.440000    	1               	;
 J-568           	927.3514    	2.140000    	1               	;
 J-569           	990.7458    	1.450000    	1               	;
 J-57            	1003.6410   	0.000000    	1               	;
 J-570           	993.8781    	0.330000    	1               	;
 J-571           	944.0793    	1.660000    	1               	;
 J-572           	888.6324    	1.400000    	1               	;
 J-573           	882.0056    	1.530000    	1               	;
 J-574           	977.9947    	0.640000    	1               	;
 J-575           	984.1041    	4.030000    	1               	;
 J-576           	939.8152    	1.330000    	1               	;
 J-577           	952.2612    	0.910000    	1               	;
 J-578           	929.0791    	1.780000    	1               	;
 J-579           	937.3979    	1.370000    	1               	;
 J-58            	1011.8370   	0.580000    	1               	;
 J-580           	941.9841    	0.300000    	1               	;
 J-581           	985.5319    	0.780000    	1               	;
 J-582           	990.3912    	0.520000    	1               	;
 J-583           	1043.0630   	1.910000    	1               	;
 J-584           	978.8658    	0.000000    	1               	;
 J-585           	947.4506    	2.100000    	1               	;
 J-586           	945.6627    	4.350000    	1               	;
 J-587           	981.1461    	4.280000    	1               	;
 J-588           	991.7986    	1.100000    	1               	;
 J-589           	966.4764    	2.340000    	1               	;
 J-59            	991.2219    	0.890000    	1               	;
 J-590           	970.4927    	2.070000    	1               	;
 J-591           	960.8322    	0.530000    	1               	;
 J-592           	942.6611    	0.110000    	1               	;
 J-593           	950.8797    	0.890000    	1               	;
 J-594           	961.6107    	2.090000    	1               	;
 J-595           	944.7115    	0.650000    	1               	;
 J-596           	960.5863    	1.300000    	1               	;
 J-597           	989.8159    	0.580000    	1               	;
 J-598           	996.1084    	0.920000    	1               	;
 J-599           	929.0646    	2.090000    	1               	;
 J-6             	985.4749    	1.790000    	1               	;
 J-60            	990.6825    	0.420000    	1               	;
 J-600           	988.6444    	0.360000    	1               	;
 J-601           	953.5576    	4.450000    	1               	;
 J-602           	931.3674    	3.800000    	1               	;
 J-603           	950.6682    	0.460000    	1               	;
 J-604           	1014.1090   	1.850000    	1               	;
 J-605           	998.3526    	1.750000    	1               	;
 J-606           	925.6104    	0.640000    	1               	;
 J-607           	925.4874    	0.200000    	1               	;
 J-608           	971.2047    	1.280000    	1               	;
 J-609           	987.1939    	1.490000    	1               	;
 J-61            	933.4720    	0.350000    	1               	;
 J-610           	994.8988    	2.790000    	1               	;
 J-611           	988.3144    	3.360000    	1               	;
 J-612           	1004.5850   	1.760000    	1               	;
 J-613           	1014.8650   	1.590000    	1               	;
 J-614           	935.3810    	0.590000    	1               	;
 J-615           	1014.9470   	2.110000    	1               	;
 J-616           	979.2708    	1.200000    	1               	;
 J-617           	929.3739    	1.860000    	1               	;
 J-618           	996.1594    	2.500000    	1               	;
 J-619           	969.3303    	0.590000    	1               	;
 J-62            	1003.5670   	0.730000    	1               	;
 J-620           	995.8979    	1.790000    	1               	;
 J-621           	958.0067    	0.980000    	1               	;
 J-622           	983.8228    	1.620000    	1               	;
 J-623           	1003.5990   	0.290000    	1               	;
 J-624           	979.8207    	0.760000    	1               	;
 J-625           	965.2540    	2.380000    	1               	;
 J-626           	980.4702    	2.880000    	1               	;
 J-627           	978.3746    	0.580000    	1               	;
 J-628           	963.5034    	0.190000    	1               	;
 J-629           	952.2413    	1.010000    	1               	;
 J-63            	1023.2670   	0.640000    	1               	;
 J-630           	943.3295    	1.190000    	1               	;
 J-631           	1014.7990   	2.030000    	1               	;
 J-632           	988.0299    	0.780000    	1               	;
 J-633           	935.5237    	0.500000    	1               	;
 J-634           	951.4055    	1.090000    	1               	;
 J-635           	938.9996    	0.900000    	1               	;
 J-636           	952.7953    	0.380000    	1               	;
 J-637           	977.3484    	0.900000    	1               	;
 J-638           	1011.4520   	3.720000    	1               	;
 J-639           	949.9562    	1.050000    	1               	;
 J-64            	906.9157    	0.150000    	1               	;
 J-640           	930.3725    	0.650000    	1               	;
 J-641           	998.5903    	1.250000    	1               	;
 J-642           	979.4849    	0.000000    	1               	;
 J-643           	962.6785    	0.310000    	1               	;
 J-644           	949.5232    	0.110000    	1               	;
 J-645           	949.9605    	0.650000    	1               	;
 J-646           	990.9929    	1.890000    	1               	;
 J-647           	970.6563    	2.430000    	1               	;
 J-648           	969.0684    	0.640000    	1               	;
 J-649           	959.3435    	0.450000    	1               	;
 J-65            	911.4216    	0.130000    	1               	;
 J-650           	988.2311    	0.940000    	1               	;
 J-651           	965.6509    	2.130000    	1               	;
 J-652           	1005.7410   	2.070000    	1               	;
 J-653           	1003.4890   	2.500000    	1               	;
 J-654           	918.5155    	0.190000    	1               	;
 J-655           	937.2994    	0.980000    	1               	;
 J-656           	987.6738    	1.650000    	1               	;
 J-657           	1000.8300   	0.960000    	1               	;
 J-658           	964.9622    	0.830000    	1               	;
 J-659           	955.6926    	0.650000    	1               	;
 J-66            	1004.2340   	0.540000    	1               	;
 J-660           	970.7772    	2.150000    	1               	;
 J-661           	987.9965    	1.950000    	1               	;
 J-662           	958.6456    	1.460000    	1               	;
 J-663           	982.8266    	1.310000    	1               	;
 J-664           	994.6068    	2.350000    	1               	;
 J-665           	967.1104    	0.490000    	1               	;
 J-666           	956.9882    	0.470000    	1               	;
 J-667           	960.4799    	2.800000    	1               	;
 J-668           	977.0001    	1.410000    	1               	;
 J-669           	948.8187    	0.710000    	1               	;
 J-67            	963.2859    	0.000000    	1               	;
 J-670           	969.7758    	0.940000    	1               	;
 J-671           	1003.3420   	2.470000    	1               	;
 J-672           	977.3659    	1.990000    	1               	;
 J-673           	987.6111    	0.260000    	1               	;
 J-674           	999.1378    	1.210000    	1               	;
 J-675           	954.0259    	0.690000    	1               	;
 J-676           	961.4188    	0.170000    	1               	;
 J-677           	947.2380    	0.570000    	1               	;
 J-678           	952.9622    	1.370000    	1               	;
 J-679           	940.0271    	1.300000    	1               	;
 J-68            	971.1852    	2.030000    	1               	;
 J-680           	927.1718    	0.680000    	1               	;
 J-681           	1002.2100   	0.640000    	1               	;
 J-682           	960.7028    	1.040000    	1               	;
 J-683           	954.8108    	0.300000    	1               	;
 J-684           	979.5780    	1.770000    	1               	;
 J-685           	977.9473    	1.630000    	1               	;
 J-686           	982.5803    	1.100000    	1               	;
 J-687           	984.1693    	1.340000    	1               	;
 J-688           	975.1980    	1.540000    	1               	;
 J-689           	982.0126    	3.280000    	1               	;
 J-69            	906.2082    	0.190000    	1               	;
 J-690           	985.9869    	1.130000    	1               	;
 J-691           	1011.6090   	3.550000    	1               	;
 J-692           	896.3007    	3.310000    	1               	;
 J-693           	983.5991    	0.000000    	1               	;
 J-694           	1001.6510   	1.380000    	1               	;
 J-695           	990.9003    	1.500000    	1               	;
 J-696           	1003.3730   	0.200000    	1               	;
 J-697           	1007.6390   	0.280000    	1               	;
 J-698           	977.4189    	4.030000    	1               	;
 J-699           	993.4266    	1.610000    	1               	;
 J-7             	1003.6760   	0.740000    	1               	;
 J-70            	909.7142    	0.130000    	1               	;
 J-700           	970.7774    	1.220000    	1               	;
 J-701           	959.1417    	2.200000    	1               	;
 J-702           	996.3725    	0.560000    	1               	;
 J-703           	1003.8810   	1.290000    	1               	;
 J-704           	1007.2000   	0.000000    	1               	;
 J-705           	961.9609    	1.870000    	1               	;
 J-706           	952.9551    	0.200000    	1               	;
 J-707           	949.4205    	0.850000    	1               	;
 J-708           	979.0197    	0.440000    	1               	;
 J-709           	1001.3740   	1.800000    	1               	;
 J-71            	938.5586    	0.850000    	1               	;
 J-710           	969.0669    	0.770000    	1               	;
 J-711           	945.1893    	2.050000    	1               	;
 J-712           	992.4787    	1.350000    	1               	;
 J-713           	991.6593    	1.180000    	1               	;
 J-714           	984.4528    	0.810000    	1               	;
 J-715           	1008.2580   	1.870000    	1               	;
 J-716           	1002.6510   	0.610000    	1               	;
 J-717           	944.1784    	1.560000    	1               	;
 J-718           	940.9149    	0.510000    	1               	;
 J-719           	950.7856    	0.280000    	1               	;
 J-72            	937.9315    	1.890000    	1               	;
 J-720           	959.0028    	2.270000    	1               	;
 J-721           	919.3350    	1.950000    	1               	;
 J-722           	965.3179    	0.260000    	1               	;
 J-723           	950.2930    	0.110000    	1               	;
 J-724           	950.0493    	0.380000    	1               	;
 J-725           	952.3387    	0.910000    	1               	;
 J-726           	904.9231    	1.840000    	1               	;
 J-727           	911.8801    	0.640000    	1               	;
 J-728           	972.1944    	1.620000    	1               	;
 J-729           	976.7352    	0.990000    	1               	;
 J-73            	938.9927    	0.670000    	1               	;
 J-730           	968.1174    	0.300000    	1               	;
 J-731           	909.2328    	0.240000    	1               	;
 J-732           	933.7438    	1.760000    	1               	;
 J-733           	993.1739    	1.260000    	1               	;
 J-734           	964.9886    	0.530000    	1               	;
 J-735           	990.4274    	0.530000    	1               	;
 J-736           	994.0798    	1.330000    	1               	;
 J-737           	992.7128    	0.990000    	1               	;
 J-738           	966.9958    	1.410000    	1               	;
 J-739           	1027.9890   	3.050000    	1               	;
 J-74            	909.9625    	1.420000    	1               	;
 J-740           	920.2624    	0.150000    	1               	;
 J-741           	922.5550    	0.760000    	1               	;
 J-742           	991.7535    	0.400000    	1               	;
 J-743           	949.6296    	0.000000    	1               	;
 J-744           	985.9662    	1.460000    	1               	;
 J-745           	1021.2890   	1.070000    	1               	;
 J-746           	1009.9100   	2.160000    	1               	;
 J-747           	947.0938    	1.800000    	1               	;
 J-748           	959.9002    	1.690000    	1               	;
 J-749           	947.3502    	0.370000    	1               	;
 J-75            	992.7049    	0.840000    	1               	;
 J-750           	1003.4850   	0.640000    	1               	;
 J-751           	1004.2330   	3.030000    	1               	;
 J-752           	989.9105    	2.220000    	1               	;
 J-753           	952.4233    	1.190000    	1               	;
 J-754           	951.4810    	0.710000    	1               	;
 J-755           	898.9548    	1.550000    	1               	;
 J-756           	960.7720    	1.260000    	1               	;
 J-757           	964.1370    	1.220000    	1               	;
 J-758           	950.4099    	0.300000    	1               	;
 J-759           	992.8989    	1.760000    	1               	;
 J-76            	992.6237    	2.680000    	1               	;
 J-760           	1019.4090   	1.380000    	1               	;
 J-761           	1020.3810   	1.030000    	1               	;
 J-762           	970.7916    	1.230000    	1               	;
 J-763           	990.7564    	1.250000    	1               	;
 J-764           	975.0715    	0.560000    	1               	;
 J-765           	983.3789    	0.570000    	1               	;
 J-766           	971.5466    	1.300000    	1               	;
 J-767           	967.7277    	2.280000    	1               	;
 J-768           	953.1704    	0.190000    	1               	;
 J-769           	914.9575    	0.470000    	1               	;
 J-77            	1013.1460   	0.000000    	1               	;
 J-770           	960.2157    	1.170000    	1               	;
 J-771           	911.6357    	0.640000    	1               	;
 J-772           	937.0064    	0.800000    	1               	;
 J-773           	921.0371    	1.660000    	1               	;
 J-774           	935.1660    	1.900000    	1               	;
 J-775           	922.7515    	1.330000    	1               	;
 J-776           	935.6785    	1.180000    	1               	;
 J-777           	929.5401    	1.090000    	1               	;
 J-778           	971.9426    	1.820000    	1               	;
 J-779           	932.1318    	0.150000    	1               	;
 J-78            	1012.1020   	2.710000    	1               	;
 J-780           	958.9342    	1.180000    	1               	;
 J-781           	962.5072    	0.970000    	1               	;
 J-782           	957.2245    	0.120000    	1               	;
 J-783           	969.9920    	0.170000    	1               	;
 J-784           	965.8174    	0.000000    	1               	;
 J-785           	1011.6890   	1.300000    	1               	;
 J-786           	1023.7910   	1.600000    	1               	;
 J-787           	1000.9900   	0.380000    	1               	;
 J-788           	991.3914    	1.850000    	1               	;
 J-789           	956.8505    	0.980000    	1               	;
 J-79            	984.8455    	4.600000    	1               	;
 J-790           	950.7025    	0.470000    	1               	;
 J-791           	948.2000    	0.000000    	1               	;
 J-792           	985.6767    	1.110000    	1               	;
 J-793           	972.6854    	0.830000    	1               	;
 J-794           	972.6446    	0.740000    	1               	;
 J-795           	964.1240    	1.520000    	1               	;
 J-796           	986.8445    	1.950000    	1               	;
 J-797           	980.2127    	2.200000    	1               	;
 J-798           	962.1927    	1.110000    	1               	;
 J-799           	953.8745    	2.790000    	1               	;
 J-8             	993.9591    	0.230000    	1               	;
 J-80            	995.5162    	3.580000    	1               	;
 J-800           	992.9837    	3.800000    	1               	;
 J-801           	957.5114    	1.930000    	1               	;
 J-802           	950.7870    	0.550000    	1               	;
 J-803           	959.2461    	0.170000    	1               	;
 J-804           	1002.6910   	1.110000    	1               	;
 J-805           	1002.7220   	0.900000    	1               	;
 J-806           	997.4722    	0.570000    	1               	;
 J-807           	968.0573    	1.140000    	1               	;
 J-808           	958.9930    	2.360000    	1               	;
 J-809           	965.1484    	1.860000    	1               	;
 J-81            	978.0113    	1.700000    	1               	;
 J-810           	924.5270    	1.100000    	1               	;
 J-811           	943.2716    	1.920000    	1               	;
 J-812           	994.2968    	2.160000    	1               	;
 J-813           	1010.1250   	3.000000    	1               	;
 J-814           	967.7351    	3.110000    	1               	;
 J-815           	979.3278    	1.170000    	1               	;
 J-816           	973.9904    	2.480000    	1               	;
 J-817           	991.4648    	0.760000    	1               	;
 J-818           	960.8208    	1.050000    	1               	;
 J-819           	979.0500    	1.570000    	1               	;
 J-82            	975.2724    	1.880000    	1               	;
 J-820           	1014.9040   	1.990000    	1               	;
 J-821           	1016.8160   	0.970000    	1               	;
 J-822           	963.8951    	1.390000    	1               	;
 J-823           	937.5535    	0.990000    	1               	;
 J-824           	982.4675    	1.830000    	1               	;
 J-825           	933.8172    	0.480000    	1               	;
 J-826           	999.8539    	1.920000    	1               	;
 J-827           	902.9859    	0.350000    	1               	;
 J-828           	962.6970    	0.210000    	1               	;
 J-829           	972.3550    	1.550000    	1               	;
 J-83            	979.7218    	1.690000    	1               	;
 J-830           	967.3467    	0.460000    	1               	;
 J-831           	940.5107    	0.510000    	1               	;
 J-832           	937.6832    	0.000000    	1               	;
 J-833           	903.3420    	1.500000    	1               	;
 J-834           	904.0063    	0.120000    	1               	;
 J-835           	984.2593    	1.430000    	1               	;
 J-836           	1014.4140   	1.370000    	1               	;
 J-837           	1035.3320   	2.200000    	1               	;
 J-838           	1005.8000   	1.530000    	1               	;
 J-839           	1022.3690   	1.590000    	1               	;
 J-84            	974.4400    	1.640000    	1               	;
 J-840           	945.0137    	0.380000    	1               	;
 J-841           	992.8677    	0.450000    	1               	;
 J-842           	949.7305    	2.120000    	1               	;
 J-843           	952.5081    	0.260000    	1               	;
 J-844           	1005.8250   	1.800000    	1               	;
 J-845           	1012.8780   	1.410000    	1               	;
 J-846           	918.9589    	0.230000    	1               	;
 J-847           	935.7976    	0.750000    	1               	;
 J-848           	988.3523    	1.930000    	1               	;
 J-849           	986.8637    	1.430000    	1               	;
 J-85            	976.9135    	0.990000    	1               	;
 J-850           	924.4462    	0.690000    	1               	;
 J-851           	921.6293    	0.720000    	1               	;
 J-852           	1033.8930   	1.420000    	1               	;
 J-853           	1033.9010   	3.200000    	1               	;
 J-854           	964.1843    	0.000000    	1               	;
 J-855           	997.3950    	0.000000    	1               	;
 J-856           	966.0934    	0.390000    	1               	;
 J-857           	964.9904    	2.100000    	1               	;
 J-858           	957.5875    	1.540000    	1               	;
 J-859           	963.6508    	1.660000    	1               	;
 J-86            	985.4865    	0.750000    	1               	;
 J-860           	1024.3120   	0.430000    	1               	;
 J-861           	994.1255    	0.950000    	1               	;
 J-862           	1006.4560   	1.830000    	1               	;
 J-863           	910.0020    	1.090000    	1               	;
 J-864           	1007.8110   	0.970000    	1               	;
 J-865           	1005.8130   	0.550000    	1               	;
 J-866           	1005.9150   	0.190000    	1               	;
 J-867           	1001.5920   	0.800000    	1               	;
 J-868           	1000.2040   	2.180000    	1               	;
 J-869           	985.6224    	0.840000    	1               	;
 J-87            	968.8198    	0.810000    	1               	;
 J-870           	990.9139    	0.300000    	1               	;
 J-871           	980.2335    	0.310000    	1               	;
 J-872           	956.9047    	1.350000    	1               	;
 J-873           	950.8310    	0.990000    	1               	;
 J-874           	1003.1100   	0.880000    	1               	;
 J-875           	955.0070    	2.020000    	1               	;
 J-876           	960.9730    	0.810000    	1               	;
 J-877           	954.5032    	0.400000    	1               	;
 J-878           	962.0879    	0.960000    	1               	;
 J-879           	995.8683    	1.300000    	1               	;
 J-88            	976.7695    	7.230000    	1               	;
 J-880           	1006.9530   	1.380000    	1               	;
 J-881           	929.2482    	0.680000    	1               	;
 J-882           	950.5231    	0.810000    	1               	;
 J-883           	944.1338    	1.180000    	1               	;
 J-884           	983.9882    	2.200000    	1               	;
 J-885           	966.9810    	0.580000    	1               	;
 J-886           	971.5127    	0.890000    	1               	;
 J-887           	1010.5630   	0.160000    	1               	;
 J-888           	986.0763    	0.760000    	1               	;
 J-889           	993.2847    	0.660000    	1               	;
 J-89            	976.1520    	1.780000    	1               	;
 J-890           	924.6761    	0.420000    	1               	;
 J-891           	952.9598    	0.730000    	1               	;
 J-892           	974.2122    	1.090000    	1               	;
 J-893           	937.5406    	0.310000    	1               	;
 J-894           	1006.4410   	0.130000    	1               	;
 J-895           	963.8924    	0.410000    	1               	;
 J-896           	928.4905    	2.560000    	1               	;
 J-897           	974.1355    	2.020000    	1               	;
 J-898           	973.7762    	0.370000    	1               	;
 J-899           	982.4932    	1.670000    	1               	;
 J-9             	950.2031    	1.070000    	1               	;
 J-90            	955.9713    	1.470000    	1               	;
 J-900           	973.0600    	1.170000    	1               	;
 J-901           	905.6060    	1.670000    	1               	;
 J-902           	946.1990    	1.590000    	1               	;
 J-903           	949.6652    	0.760000    	1               	;
 J-904           	1008.8920   	1.660000    	1               	;
 J-905           	955.6221    	1.220000    	1               	;
 J-906           	995.1718    	1.410000    	1               	;
 J-907           	993.9321    	0.150000    	1               	;
 J-908           	951.3820    	0.660000    	1               	;
 J-909           	925.5072    	1.420000    	1               	;
 J-91            	955.6252    	1.730000    	1               	;
 J-910           	900.6094    	0.690000    	1               	;
 J-911           	997.7834    	0.960000    	1               	;
 J-912           	999.9645    	0.720000    	1               	;
 J-913           	990.5222    	1.660000    	1               	;
 J-914           	971.5840    	1.040000    	1               	;
 J-915           	981.0837    	3.410000    	1               	;
 J-916           	964.7193    	0.650000    	1               	;
 J-917           	927.1465    	2.300000    	1               	;
 J-918           	934.7101    	0.800000    	1               	;
 J-919           	978.8710    	0.830000    	1               	;
 J-92            	955.4482    	0.100000    	1               	;
 J-920           	914.9105    	0.610000    	1               	;
 J-921           	987.3814    	1.100000    	1               	;
 J-922           	964.0577    	1.180000    	1               	;
 J-923           	947.4417    	0.430000    	1               	;
 J-924           	967.9700    	0.850000    	1               	;
 J-925           	969.4350    	0.560000    	1               	;
 J-926           	974.6882    	0.630000    	1               	;
 J-927           	929.5856    	2.230000    	1               	;
 J-928           	934.3593    	1.180000    	1               	;
 J-929           	950.6921    	1.650000    	1               	;
 J-93            	948.1294    	1.940000    	1               	;
 J-930           	940.9962    	0.290000    	1               	;
 J-931           	895.2242    	3.590000    	1               	;
 J-932           	975.5616    	17.870000   	1               	;
 J-933           	965.1773    	1.380000    	1               	;
 J-934           	998.4808    	0.000000    	1               	;
 J-935           	963.7155    	0.160000    	1               	;
 J-936           	1014.0070   	1.280000    	1               	;
 J-937           	1016.2690   	1.810000    	1               	;
 J-938           	992.3329    	0.940000    	1               	;
 J-939           	990.9952    	1.160000    	1               	;
 J-94            	939.3378    	3.030000    	1               	;
 J-940           	940.8580    	1.610000    	1               	;
 J-941           	1008.9480   	1.600000    	1               	;
 J-942           	1000.9110   	0.250000    	1               	;
 J-943           	980.3113    	0.540000    	1               	;
 J-944           	976.6603    	0.000000    	1               	;
 J-945           	995.7826    	0.350000    	1               	;
 J-946           	987.1620    	0.450000    	1               	;
 J-947           	972.2933    	2.100000    	1               	;
 J-948           	971.4660    	1.640000    	1               	;
 J-949           	994.5024    	2.480000    	1               	;
 J-95            	948.5800    	0.680000    	1               	;
 J-950           	994.8294    	1.790000    	1               	;
 J-951           	933.7756    	5.850000    	1               	;
 J-952           	966.7023    	1.130000    	1               	;
 J-953           	963.1157    	1.930000    	1               	;
 J-954           	946.0626    	0.400000    	1               	;
 J-955           	1000.4420   	0.310000    	1               	;
 J-956           	937.8048    	0.350000    	1               	;
 J-957           	988.5888    	0.400000    	1               	;
 J-958           	982.0391    	1.150000    	1               	;
 J-959           	960.9374    	2.560000    	1               	;
 J-96            	961.0162    	1.300000    	1               	;
 J-960           	970.3244    	1.170000    	1               	;
 J-961           	959.5090    	1.680000    	1               	;
 J-962           	935.1311    	0.510000    	1               	;
 J-963           	954.0710    	0.350000    	1               	;
 J-964           	954.4902    	1.710000    	1               	;
 J-965           	927.1609    	0.550000    	1               	;
 J-966           	947.6846    	1.150000    	1               	;
 J-967           	970.0997    	0.280000    	1               	;
 J-968           	959.1315    	1.550000    	1               	;
 J-969           	1036.7250   	1.620000    	1               	;
 J-97            	961.7165    	3.210000    	1               	;
 J-970           	981.6303    	1.840000    	1               	;
 J-971           	970.9155    	0.250000    	1               	;
 J-972           	975.1744    	1.810000    	1               	;
 J-973           	1028.7480   	1.070000    	1               	;
 J-974           	1023.0590   	1.690000    	1               	;
 J-975           	1004.2940   	1.220000    	1               	;
 J-976           	972.9756    	0.600000    	1               	;
 J-977           	990.0012    	0.950000    	1               	;
 J-978           	946.9396    	2.400000    	1               	;
 J-979           	912.4518    	2.300000    	1               	;
 J-98            	953.2260    	1.410000    	1               	;
 J-980           	1037.2080   	2.580000    	1               	;
 J-981           	979.9630    	1.250000    	1               	;
 J-982           	999.2872    	0.290000    	1               	;
 J-983           	995.0948    	2.520000    	1               	;
 J-984           	940.4525    	0.350000    	1               	;
 J-985           	921.9690    	0.960000    	1               	;
 J-986           	995.9110    	1.460000    	1               	;
 J-987           	969.5055    	1.490000    	1               	;
 J-988           	988.5472    	2.690000    	1               	;
 J-989           	979.9233    	2.090000    	1               	;
 J-99            	933.7013    	0.620000    	1               	;
 J-990           	984.2438    	0.150000    	1               	;
 J-991           	975.1016    	0.270000    	1               	;
 J-992           	949.8235    	1.090000    	1               	;
 J-993           	1006.0050   	0.780000    	1               	;
 J-994           	1004.0370   	0.240000    	1               	;
 J-995           	978.7106    	1.180000    	1               	;
 J-996           	1005.3850   	0.420000    	1               	;
 J-997           	1019.8960   	0.400000    	1               	;
 J-998           	994.9448    	1.350000    	1               	;
 J-999           	979.9357    	2.880000    	1               	;
 O-Pump-1        	602.6788    	0.000000    	1               	;
 O-Pump-2        	1000.1850   	0.000000    	1               	;
 O-Pump-4        	834.8940    	0.000000    	1               	;
 O-Pump-5        	834.2632    	0.000000    	1               	;
 I-AV-100        	964.6000    	0.000000    	1               	;
 O-AV-101        	994.1000    	0.000000    	1               	;
 I-AV-105        	987.5000    	0.000000    	1               	;
 I-AV-106        	990.8000    	0.000000    	1               	;
 O-AV-107        	981.0000    	0.000000    	1               	;
 I-AV-108        	951.4000    	0.000000    	1               	;
 O-AV-109        	935.0000    	0.000000    	1               	;
 I-AV-110        	948.2000    	0.000000    	1               	;
 O-AV-111        	935.0000    	0.000000    	1               	;
 O-AV-112        	1049.9000   	0.000000    	1               	;
 O-AV-113        	1003.9000   	0.000000    	1               	;
 I-AV-114        	925.2000    	0.000000    	1               	;
 I-AV-115        	925.2000    	0.000000    	1               	;
 I-AV-12         	967.9000    	0.000000    	1               	;
 I-AV-122        	984.3000    	0.000000    	1               	;
 O-AV-123        	981.0000    	0.000000    	1               	;
 O-AV-125        	967.9000    	0.000000    	1               	;
 O-AV-126        	902.2000    	0.000000    	1               	;
 O-AV-127        	908.8000    	0.000000    	1               	;
 I-AV-128        	925.2000    	0.000000    	1               	;
 I-AV-129        	925.2000    	0.000000    	1               	;
 O-AV-130        	938.3000    	0.000000    	1               	;
 O-AV-131        	935.0000    	0.000000    	1               	;
 O-AV-134        	948.2000    	0.000000    	1               	;
 I-AV-135        	1007.2000   	0.000000    	1               	;
 O-AV-136        	958.0000    	0.000000    	1               	;
 O-AV-137        	925.2000    	0.000000    	1               	;
 O-AV-138        	941.6000    	0.000000    	1               	;
 O-AV-139        	918.6000    	0.000000    	1               	;
 O-AV-142        	941.6000    	0.000000    	1               	;
 I-AV-143        	948.2000    	0.000000    	1               	;
 I-AV-144        	938.3000    	0.000000    	1               	;
 I-AV-145        	967.9000    	0.000000    	1               	;
 I-AV-146        	994.1000    	0.000000    	1               	;
 O-AV-147        	944.9000    	0.000000    	1               	;
 O-AV-149        	961.3000    	0.000000    	1               	;
 O-AV-150        	948.2000    	0.000000    	1               	;
 I-AV-152        	954.7000    	0.000000    	1               	;
 I-AV-153        	958.0000    	0.000000    	1               	;
 I-AV-155        	971.1000    	0.000000    	1               	;
 I-AV-156        	974.4000    	0.000000    	1               	;
 I-AV-158        	951.4000    	0.000000    	1               	;
 I-AV-16         	981.0000    	0.000000    	1               	;
 I-AV-160        	954.7000    	0.000000    	1               	;
 I-AV-162        	951.4000    	0.000000    	1               	;
 O-AV-163        	951.4000    	0.000000    	1               	;
 O-AV-165        	941.6000    	0.000000    	1               	;
 O-AV-166        	977.7000    	0.000000    	1               	;
 I-AV-168        	997.4000    	0.000000    	1               	;
 O-AV-169        	981.0000    	0.000000    	1               	;
 O-AV-170        	1007.2000   	0.000000    	1               	;
 O-AV-171        	984.3000    	0.000000    	1               	;
 O-AV-173        	1007.2000   	0.000000    	1               	;
 I-AV-174        	987.5000    	0.000000    	1               	;
 O-AV-175        	997.4000    	0.000000    	1               	;
 O-AV-177        	1010.5000   	0.000000    	1               	;
 O-AV-178        	1013.8000   	0.000000    	1               	;
 O-AV-179        	1020.3000   	0.000000    	1               	;
 O-AV-18         	948.2000    	0.000000    	1               	;
 O-AV-180        	1013.8000   	0.000000    	1               	;
 O-AV-181        	997.4000    	0.000000    	1               	;
 I-AV-183        	987.5000    	0.000000    	1               	;
 I-AV-185        	967.9000    	0.000000    	1               	;
 O-AV-186        	964.6000    	0.000000    	1               	;
 O-AV-189        	981.0000    	0.000000    	1               	;
 O-AV-190        	1003.9000   	0.000000    	1               	;
 O-AV-191        	961.3000    	0.000000    	1               	;
 I-AV-194        	1007.2000   	0.000000    	1               	;
 O-AV-195        	997.4000    	0.000000    	1               	;
 I-AV-196        	925.2000    	0.000000    	1               	;
 I-AV-198        	967.9000    	0.000000    	1               	;
 O-AV-199        	948.2000    	0.000000    	1               	;
 O-AV-200        	958.0000    	0.000000    	1               	;
 O-AV-201        	990.8000    	0.000000    	1               	;
 O-AV-203        	977.7000    	0.000000    	1               	;
 I-AV-204        	977.7000    	0.000000    	1               	;
 O-AV-205        	977.7000    	0.000000    	1               	;
 I-AV-206        	984.3000    	0.000000    	1               	;
 O-AV-208        	967.9000    	0.000000    	1               	;
 I-AV-209        	1000.7000   	0.000000    	1               	;
 O-AV-211        	971.1000    	0.000000    	1               	;
 O-AV-212        	990.8000    	0.000000    	1               	;
 O-AV-215        	997.4000    	0.000000    	1               	;
 I-AV-216        	974.4000    	0.000000    	1               	;
 O-AV-217        	987.5000    	0.000000    	1               	;
 I-AV-218        	1007.2000   	0.000000    	1               	;
 O-AV-219        	1007.2000   	0.000000    	1               	;
 O-AV-22         	954.7000    	0.000000    	1               	;
 O-AV-222        	1013.8000   	0.000000    	1               	;
 I-AV-223        	1049.9000   	0.000000    	1               	;
 I-AV-224        	990.8000    	0.000000    	1               	;
 O-AV-225        	997.4000    	0.000000    	1               	;
 O-AV-226        	1010.5000   	0.000000    	1               	;
 O-AV-228        	1017.1000   	0.000000    	1               	;
 O-AV-229        	1000.7000   	0.000000    	1               	;
 I-AV-231        	1017.1000   	0.000000    	1               	;
 I-AV-233        	977.7000    	0.000000    	1               	;
 I-AV-234        	981.0000    	0.000000    	1               	;
 O-AV-235        	1003.9000   	0.000000    	1               	;
 O-AV-236        	990.8000    	0.000000    	1               	;
 I-AV-237        	994.1000    	0.000000    	1               	;
 O-AV-238        	1007.2000   	0.000000    	1               	;
 O-AV-239        	1007.2000   	0.000000    	1               	;
 O-AV-241        	1017.1000   	0.000000    	1               	;
 I-AV-243        	974.4000    	0.000000    	1               	;
 O-AV-244        	987.5000    	0.000000    	1               	;
 I-AV-245        	961.3000    	0.000000    	1               	;
 I-AV-246        	1013.8000   	0.000000    	1               	;
 O-AV-25         	987.5000    	0.000000    	1               	;
 I-AV-250        	981.0000    	0.000000    	1               	;
 I-AV-252        	997.4000    	0.000000    	1               	;
 I-AV-253        	1013.8000   	0.000000    	1               	;
 I-AV-254        	977.7000    	0.000000    	1               	;
 I-AV-255        	1023.6000   	0.000000    	1               	;
 O-AV-256        	1017.1000   	0.000000    	1               	;
 O-AV-257        	1013.8000   	0.000000    	1               	;
 I-AV-258        	1003.9000   	0.000000    	1               	;
 O-AV-259        	1000.7000   	0.000000    	1               	;
 I-AV-26         	974.4000    	0.000000    	1               	;
 O-AV-260        	994.1000    	0.000000    	1               	;
 I-AV-261        	997.4000    	0.000000    	1               	;
 O-AV-262        	994.1000    	0.000000    	1               	;
 I-AV-263        	1000.7000   	0.000000    	1               	;
 O-AV-265        	990.8000    	0.000000    	1               	;
 I-AV-266        	984.3000    	0.000000    	1               	;
 I-AV-267        	987.5000    	0.000000    	1               	;
 O-AV-268        	1007.2000   	0.000000    	1               	;
 O-AV-269        	994.1000    	0.000000    	1               	;
 I-AV-27         	981.0000    	0.000000    	1               	;
 I-AV-271        	1007.2000   	0.000000    	1               	;
 I-AV-273        	1000.7000   	0.000000    	1               	;
 I-AV-274        	1003.9000   	0.000000    	1               	;
 I-AV-275        	1023.6000   	0.000000    	1               	;
 I-AV-276        	1003.9000   	0.000000    	1               	;
 I-AV-277        	1020.3000   	0.000000    	1               	;
 O-AV-279        	1010.5000   	0.000000    	1               	;
 O-AV-28         	964.6000    	0.000000    	1               	;
 I-AV-281        	974.4000    	0.000000    	1               	;
 I-AV-282        	984.3000    	0.000000    	1               	;
 I-AV-283        	981.0000    	0.000000    	1               	;
 I-AV-286        	987.5000    	0.000000    	1               	;
 O-AV-287        	974.4000    	0.000000    	1               	;
 O-AV-290        	1013.8000   	0.000000    	1               	;
 O-AV-291        	1000.7000   	0.000000    	1               	;
 I-AV-292        	984.3000    	0.000000    	1               	;
 I-AV-293        	990.8000    	0.000000    	1               	;
 I-AV-294        	1000.7000   	0.000000    	1               	;
 I-AV-296        	1013.8000   	0.000000    	1               	;
 I-AV-297        	990.8000    	0.000000    	1               	;
 O-AV-298        	987.5000    	0.000000    	1               	;
 I-AV-299        	964.6000    	0.000000    	1               	;
 O-AV-3          	948.2000    	0.000000    	1               	;
 O-AV-302        	1003.9000   	0.000000    	1               	;
 I-AV-305        	1010.5000   	0.000000    	1               	;
 I-AV-306        	1017.1000   	0.000000    	1               	;
 O-AV-307        	1017.1000   	0.000000    	1               	;
 I-AV-308        	1003.9000   	0.000000    	1               	;
 I-AV-31         	951.4000    	0.000000    	1               	;
 O-AV-310        	981.0000    	0.000000    	1               	;
 O-AV-312        	997.4000    	0.000000    	1               	;
 I-AV-313        	994.1000    	0.000000    	1               	;
 O-AV-315        	1000.7000   	0.000000    	1               	;
 O-AV-319        	990.8000    	0.000000    	1               	;
 I-AV-32         	961.3000    	0.000000    	1               	;
 I-AV-320        	997.4000    	0.000000    	1               	;
 I-AV-321        	984.3000    	0.000000    	1               	;
 I-AV-322        	987.5000    	0.000000    	1               	;
 O-AV-323        	1007.2000   	0.000000    	1               	;
 O-AV-325        	977.7000    	0.000000    	1               	;
 O-AV-327        	971.1000    	0.000000    	1               	;
 O-AV-330        	981.0000    	0.000000    	1               	;
 O-AV-334        	1040.0000   	0.000000    	1               	;
 I-AV-335        	994.1000    	0.000000    	1               	;
 I-AV-338        	990.8000    	0.000000    	1               	;
 O-AV-341        	977.7000    	0.000000    	1               	;
 I-AV-342        	974.4000    	0.000000    	1               	;
 I-AV-343        	974.4000    	0.000000    	1               	;
 O-AV-344        	981.0000    	0.000000    	1               	;
 O-AV-345        	987.5000    	0.000000    	1               	;
 I-AV-346        	1010.5000   	0.000000    	1               	;
 I-AV-348        	958.0000    	0.000000    	1               	;
 I-AV-349        	964.6000    	0.000000    	1               	;
 I-AV-352        	951.4000    	0.000000    	1               	;
 I-AV-354        	964.6000    	0.000000    	1               	;
 I-AV-355        	977.7000    	0.000000    	1               	;
 I-AV-357        	997.4000    	0.000000    	1               	;
 I-AV-358        	984.3000    	0.000000    	1               	;
 I-AV-359        	977.7000    	0.000000    	1               	;
 I-AV-36         	951.4000    	0.000000    	1               	;
 I-AV-360        	974.4000    	0.000000    	1               	;
 I-AV-361        	948.2000    	0.000000    	1               	;
 I-AV-363        	944.9000    	0.000000    	1               	;
 O-AV-364        	948.2000    	0.000000    	1               	;
 O-AV-366        	971.1000    	0.000000    	1               	;
 I-AV-369        	974.4000    	0.000000    	1               	;
 I-AV-37         	974.4000    	0.000000    	1               	;
 I-AV-370        	954.7000    	0.000000    	1               	;
 I-AV-371        	977.7000    	0.000000    	1               	;
 O-AV-372        	974.4000    	0.000000    	1               	;
 O-AV-374        	974.4000    	0.000000    	1               	;
 I-AV-375        	997.4000    	0.000000    	1               	;
 O-AV-376        	990.8000    	0.000000    	1               	;
 O-AV-377        	1013.8000   	0.000000    	1               	;
 I-AV-378        	987.5000    	0.000000    	1               	;
 I-AV-379        	948.2000    	0.000000    	1               	;
 O-AV-380        	1000.7000   	0.000000    	1               	;
 O-AV-381        	981.0000    	0.000000    	1               	;
 O-AV-382        	997.4000    	0.000000    	1               	;
 I-AV-383        	984.3000    	0.000000    	1               	;
 I-AV-384        	984.3000    	0.000000    	1               	;
 O-AV-385        	990.8000    	0.000000    	1               	;
 I-AV-388        	967.9000    	0.000000    	1               	;
 O-AV-389        	1010.5000   	0.000000    	1               	;
 I-AV-39         	971.1000    	0.000000    	1               	;
 O-AV-390        	958.0000    	0.000000    	1               	;
 O-AV-391        	1010.5000   	0.000000    	1               	;
 O-AV-393        	1003.9000   	0.000000    	1               	;
 I-AV-398        	1007.2000   	0.000000    	1               	;
 O-AV-40         	967.9000    	0.000000    	1               	;
 I-AV-401        	987.5000    	0.000000    	1               	;
 I-AV-402        	958.0000    	0.000000    	1               	;
 I-AV-403        	961.3000    	0.000000    	1               	;
 O-AV-404        	961.3000    	0.000000    	1               	;
 O-AV-405        	987.5000    	0.000000    	1               	;
 O-AV-406        	977.7000    	0.000000    	1               	;
 I-AV-407        	994.1000    	0.000000    	1               	;
 O-AV-408        	984.3000    	0.000000    	1               	;
 I-AV-409        	977.7000    	0.000000    	1               	;
 O-AV-41         	951.4000    	0.000000    	1               	;
 O-AV-413        	1003.9000   	0.000000    	1               	;
 I-AV-415        	997.4000    	0.000000    	1               	;
 I-AV-416        	1010.5000   	0.000000    	1               	;
 I-AV-417        	1003.9000   	0.000000    	1               	;
 O-AV-418        	1010.5000   	0.000000    	1               	;
 O-AV-419        	997.4000    	0.000000    	1               	;
 I-AV-421        	1003.9000   	0.000000    	1               	;
 O-AV-423        	984.3000    	0.000000    	1               	;
 I-AV-424        	1023.6000   	0.000000    	1               	;
 I-AV-425        	1013.8000   	0.000000    	1               	;
 I-AV-426        	1003.9000   	0.000000    	1               	;
 I-AV-429        	1023.6000   	0.000000    	1               	;
 O-AV-43         	958.0000    	0.000000    	1               	;
 O-AV-431        	1017.1000   	0.000000    	1               	;
 I-AV-432        	1013.8000   	0.000000    	1               	;
 O-AV-435        	1017.1000   	0.000000    	1               	;
 O-AV-436        	1007.2000   	0.000000    	1               	;
 O-AV-438        	1010.5000   	0.000000    	1               	;
 I-AV-44         	935.0000    	0.000000    	1               	;
 I-AV-440        	1026.9000   	0.000000    	1               	;
 O-AV-442        	1023.6000   	0.000000    	1               	;
 O-AV-444        	1026.9000   	0.000000    	1               	;
 I-AV-445        	1063.0000   	0.000000    	1               	;
 O-AV-446        	990.8000    	0.000000    	1               	;
 I-AV-450        	1040.0000   	0.000000    	1               	;
 O-AV-451        	1026.9000   	0.000000    	1               	;
 I-AV-452        	1003.9000   	0.000000    	1               	;
 I-AV-453        	1007.2000   	0.000000    	1               	;
 I-AV-454        	1010.5000   	0.000000    	1               	;
 I-AV-455        	990.8000    	0.000000    	1               	;
 O-AV-456        	1007.2000   	0.000000    	1               	;
 I-AV-46         	987.5000    	0.000000    	1               	;
 O-AV-460        	1000.7000   	0.000000    	1               	;
 I-AV-462        	1007.2000   	0.000000    	1               	;
 I-AV-465        	1013.8000   	0.000000    	1               	;
 I-AV-467        	1003.9000   	0.000000    	1               	;
 I-AV-469        	1023.6000   	0.000000    	1               	;
 O-AV-47         	990.8000    	0.000000    	1               	;
 I-AV-470        	1020.3000   	0.000000    	1               	;
 O-AV-471        	1033.5000   	0.000000    	1               	;
 I-AV-472        	1033.5000   	0.000000    	1               	;
 I-AV-473        	1043.3000   	0.000000    	1               	;
 O-AV-474        	1036.8000   	0.000000    	1               	;
 I-AV-475        	1020.3000   	0.000000    	1               	;
 I-AV-477        	1017.1000   	0.000000    	1               	;
 I-AV-478        	1013.8000   	0.000000    	1               	;
 O-AV-479        	994.1000    	0.000000    	1               	;
 O-AV-480        	1017.1000   	0.000000    	1               	;
 O-AV-481        	977.7000    	0.000000    	1               	;
 O-AV-482        	997.4000    	0.000000    	1               	;
 I-AV-483        	994.1000    	0.000000    	1               	;
 O-AV-485        	1000.7000   	0.000000    	1               	;
 O-AV-487        	1033.5000   	0.000000    	1               	;
 I-AV-488        	1026.9000   	0.000000    	1               	;
 I-AV-489        	1007.2000   	0.000000    	1               	;
 I-AV-49         	1007.2000   	0.000000    	1               	;
 I-AV-490        	1007.2000   	0.000000    	1               	;
 O-AV-493        	994.1000    	0.000000    	1               	;
 O-AV-494        	1003.9000   	0.000000    	1               	;
 O-AV-495        	1003.9000   	0.000000    	1               	;
 O-AV-496        	1007.2000   	0.000000    	1               	;
 I-AV-497        	987.5000    	0.000000    	1               	;
 I-AV-498        	951.4000    	0.000000    	1               	;
 I-AV-499        	951.4000    	0.000000    	1               	;
 O-AV-5          	951.4000    	0.000000    	1               	;
 O-AV-50         	1000.7000   	0.000000    	1               	;
 I-AV-503        	944.9000    	0.000000    	1               	;
 O-AV-505        	958.0000    	0.000000    	1               	;
 O-AV-506        	958.0000    	0.000000    	1               	;
 I-AV-507        	984.3000    	0.000000    	1               	;
 I-AV-509        	928.5000    	0.000000    	1               	;
 O-AV-51         	1013.8000   	0.000000    	1               	;
 O-AV-510        	958.0000    	0.000000    	1               	;
 I-AV-511        	928.5000    	0.000000    	1               	;
 O-AV-514        	941.6000    	0.000000    	1               	;
 I-AV-515        	971.1000    	0.000000    	1               	;
 O-AV-516        	990.8000    	0.000000    	1               	;
 I-AV-518        	1010.5000   	0.000000    	1               	;
 I-AV-519        	997.4000    	0.000000    	1               	;
 I-AV-52         	987.5000    	0.000000    	1               	;
 O-AV-520        	994.1000    	0.000000    	1               	;
 O-AV-522        	984.3000    	0.000000    	1               	;
 I-AV-523        	1003.9000   	0.000000    	1               	;
 I-AV-524        	1007.2000   	0.000000    	1               	;
 I-AV-525        	1003.9000   	0.000000    	1               	;
 I-AV-526        	1000.7000   	0.000000    	1               	;
 I-AV-527        	1010.5000   	0.000000    	1               	;
 I-AV-528        	990.8000    	0.000000    	1               	;
 I-AV-529        	987.5000    	0.000000    	1               	;
 O-AV-530        	938.3000    	0.000000    	1               	;
 I-AV-531        	961.3000    	0.000000    	1               	;
 O-AV-532        	935.0000    	0.000000    	1               	;
 O-AV-533        	918.6000    	0.000000    	1               	;
 I-AV-534        	990.8000    	0.000000    	1               	;
 I-AV-535        	928.5000    	0.000000    	1               	;
 O-AV-536        	938.3000    	0.000000    	1               	;
 O-AV-537        	958.0000    	0.000000    	1               	;
 O-AV-539        	931.8000    	0.000000    	1               	;
 O-AV-540        	928.5000    	0.000000    	1               	;
 O-AV-541        	928.5000    	0.000000    	1               	;
 I-AV-542        	967.9000    	0.000000    	1               	;
 I-AV-543        	931.8000    	0.000000    	1               	;
 I-AV-545        	984.3000    	0.000000    	1               	;
 O-AV-546        	931.8000    	0.000000    	1               	;
 O-AV-548        	944.9000    	0.000000    	1               	;
 O-AV-549        	948.2000    	0.000000    	1               	;
 I-AV-55         	1013.8000   	0.000000    	1               	;
 O-AV-550        	951.4000    	0.000000    	1               	;
 O-AV-551        	938.3000    	0.000000    	1               	;
 O-AV-552        	977.7000    	0.000000    	1               	;
 O-AV-554        	981.0000    	0.000000    	1               	;
 O-AV-557        	990.8000    	0.000000    	1               	;
 I-AV-559        	977.7000    	0.000000    	1               	;
 O-AV-56         	1003.9000   	0.000000    	1               	;
 I-AV-562        	971.1000    	0.000000    	1               	;
 I-AV-563        	964.6000    	0.000000    	1               	;
 I-AV-564        	941.6000    	0.000000    	1               	;
 I-AV-568        	994.1000    	0.000000    	1               	;
 I-AV-569        	951.4000    	0.000000    	1               	;
 O-AV-57         	1013.8000   	0.000000    	1               	;
 O-AV-572        	958.0000    	0.000000    	1               	;
 I-AV-574        	964.6000    	0.000000    	1               	;
 I-AV-576        	938.3000    	0.000000    	1               	;
 O-AV-577        	964.6000    	0.000000    	1               	;
 I-AV-579        	987.5000    	0.000000    	1               	;
 O-AV-58         	1003.9000   	0.000000    	1               	;
 O-AV-581        	925.2000    	0.000000    	1               	;
 O-AV-582        	905.5000    	0.000000    	1               	;
 O-AV-583        	905.5000    	0.000000    	1               	;
 I-AV-584        	912.1000    	0.000000    	1               	;
 I-AV-585        	935.0000    	0.000000    	1               	;
 O-AV-586        	931.8000    	0.000000    	1               	;
 O-AV-589        	921.9000    	0.000000    	1               	;
 I-AV-590        	984.3000    	0.000000    	1               	;
 O-AV-591        	902.2000    	0.000000    	1               	;
 O-AV-593        	918.6000    	0.000000    	1               	;
 O-AV-594        	967.9000    	0.000000    	1               	;
 O-AV-595        	964.6000    	0.000000    	1               	;
 I-AV-597        	964.6000    	0.000000    	1               	;
 O-AV-598        	921.9000    	0.000000    	1               	;
 I-AV-599        	931.8000    	0.000000    	1               	;
 O-AV-6          	944.9000    	0.000000    	1               	;
 O-AV-60         	1013.8000   	0.000000    	1               	;
 O-AV-600        	948.2000    	0.000000    	1               	;
 O-AV-603        	885.8000    	0.000000    	1               	;
 I-AV-604        	912.1000    	0.000000    	1               	;
 I-AV-605        	885.8000    	0.000000    	1               	;
 I-AV-606        	908.8000    	0.000000    	1               	;
 I-AV-609        	905.5000    	0.000000    	1               	;
 I-AV-61         	1010.5000   	0.000000    	1               	;
 O-AV-611        	961.3000    	0.000000    	1               	;
 I-AV-613        	944.9000    	0.000000    	1               	;
 I-AV-616        	938.3000    	0.000000    	1               	;
 O-AV-617        	935.0000    	0.000000    	1               	;
 O-AV-618        	938.3000    	0.000000    	1               	;
 O-AV-619        	941.6000    	0.000000    	1               	;
 I-AV-62         	990.8000    	0.000000    	1               	;
 I-AV-621        	944.9000    	0.000000    	1               	;
 O-AV-622        	964.6000    	0.000000    	1               	;
 I-AV-624        	971.1000    	0.000000    	1               	;
 O-AV-625        	967.9000    	0.000000    	1               	;
 I-AV-627        	974.4000    	0.000000    	1               	;
 O-AV-628        	977.7000    	0.000000    	1               	;
 O-AV-630        	971.1000    	0.000000    	1               	;
 I-AV-631        	974.4000    	0.000000    	1               	;
 I-AV-632        	977.7000    	0.000000    	1               	;
 O-AV-633        	977.7000    	0.000000    	1               	;
 I-AV-634        	938.3000    	0.000000    	1               	;
 I-AV-635        	938.3000    	0.000000    	1               	;
 I-AV-636        	948.2000    	0.000000    	1               	;
 O-AV-637        	964.6000    	0.000000    	1               	;
 O-AV-638        	961.3000    	0.000000    	1               	;
 I-AV-64         	1003.9000   	0.000000    	1               	;
 O-AV-641        	1040.0000   	0.000000    	1               	;
 O-AV-642        	1026.9000   	0.000000    	1               	;
 I-AV-643        	1007.2000   	0.000000    	1               	;
 O-AV-646        	1056.4000   	0.000000    	1               	;
 O-AV-647        	1000.7000   	0.000000    	1               	;
 O-AV-648        	987.5000    	0.000000    	1               	;
 O-AV-649        	987.5000    	0.000000    	1               	;
 O-AV-650        	1010.5000   	0.000000    	1               	;
 O-AV-654        	974.4000    	0.000000    	1               	;
 O-AV-655        	984.3000    	0.000000    	1               	;
 O-AV-656        	941.6000    	0.000000    	1               	;
 O-AV-657        	961.3000    	0.000000    	1               	;
 I-AV-659        	928.5000    	0.000000    	1               	;
 I-AV-66         	1010.5000   	0.000000    	1               	;
 O-AV-660        	964.6000    	0.000000    	1               	;
 O-AV-661        	961.3000    	0.000000    	1               	;
 I-AV-662        	977.7000    	0.000000    	1               	;
 I-AV-663        	984.3000    	0.000000    	1               	;
 O-AV-665        	954.7000    	0.000000    	1               	;
 I-AV-666        	1020.3000   	0.000000    	1               	;
 O-AV-667        	987.5000    	0.000000    	1               	;
 I-AV-669        	951.4000    	0.000000    	1               	;
 I-AV-67         	997.4000    	0.000000    	1               	;
 I-AV-671        	954.7000    	0.000000    	1               	;
 I-AV-672        	958.0000    	0.000000    	1               	;
 I-AV-674        	921.9000    	0.000000    	1               	;
 I-AV-675        	948.2000    	0.000000    	1               	;
 O-AV-677        	912.1000    	0.000000    	1               	;
 I-AV-678        	974.4000    	0.000000    	1               	;
 O-AV-679        	954.7000    	0.000000    	1               	;
 O-AV-680        	974.4000    	0.000000    	1               	;
 O-AV-681        	879.3000    	0.000000    	1               	;
 I-AV-682        	958.0000    	0.000000    	1               	;
 O-AV-683        	889.1000    	0.000000    	1               	;
 I-AV-684        	899.0000    	0.000000    	1               	;
 I-AV-685        	961.3000    	0.000000    	1               	;
 I-AV-686        	981.0000    	0.000000    	1               	;
 I-AV-688        	892.4000    	0.000000    	1               	;
 O-AV-689        	977.7000    	0.000000    	1               	;
 O-AV-691        	981.0000    	0.000000    	1               	;
 O-AV-692        	964.6000    	0.000000    	1               	;
 I-AV-693        	915.4000    	0.000000    	1               	;
 I-AV-694        	921.9000    	0.000000    	1               	;
 I-AV-695        	918.6000    	0.000000    	1               	;
 O-AV-696        	908.8000    	0.000000    	1               	;
 O-AV-7          	935.0000    	0.000000    	1               	;
 I-AV-701        	974.4000    	0.000000    	1               	;
 O-AV-703        	944.9000    	0.000000    	1               	;
 I-AV-704        	951.4000    	0.000000    	1               	;
 O-AV-705        	948.2000    	0.000000    	1               	;
 I-AV-706        	1010.5000   	0.000000    	1               	;
 I-AV-707        	1023.6000   	0.000000    	1               	;
 O-AV-709        	1030.2000   	0.000000    	1               	;
 O-AV-710        	1020.3000   	0.000000    	1               	;
 O-AV-711        	971.1000    	0.000000    	1               	;
 I-AV-713        	1023.6000   	0.000000    	1               	;
 O-AV-714        	1030.2000   	0.000000    	1               	;
 O-AV-716        	974.4000    	0.000000    	1               	;
 I-AV-717        	990.8000    	0.000000    	1               	;
 O-AV-718        	981.0000    	0.000000    	1               	;
 O-AV-720        	977.7000    	0.000000    	1               	;
 O-AV-721        	967.9000    	0.000000    	1               	;
 O-AV-722        	938.3000    	0.000000    	1               	;
 O-AV-73         	1007.2000   	0.000000    	1               	;
 O-AV-730        	951.4000    	0.000000    	1               	;
 I-AV-731        	984.3000    	0.000000    	1               	;
 O-AV-733        	981.0000    	0.000000    	1               	;
 O-AV-735        	954.7000    	0.000000    	1               	;
 O-AV-736        	944.9000    	0.000000    	1               	;
 I-AV-737        	974.4000    	0.000000    	1               	;
 I-AV-738        	964.6000    	0.000000    	1               	;
 O-AV-739        	944.9000    	0.000000    	1               	;
 O-AV-74         	994.1000    	0.000000    	1               	;
 O-AV-740        	941.6000    	0.000000    	1               	;
 I-AV-78         	997.4000    	0.000000    	1               	;
 O-AV-8          	935.0000    	0.000000    	1               	;
 I-AV-80         	987.5000    	0.000000    	1               	;
 I-AV-82         	964.6000    	0.000000    	1               	;
 O-AV-84         	997.4000    	0.000000    	1               	;
 I-AV-85         	1007.2000   	0.000000    	1               	;
 O-AV-86         	981.0000    	0.000000    	1               	;
 O-AV-89         	967.9000    	0.000000    	1               	;
 O-AV-91         	981.0000    	0.000000    	1               	;
 O-AV-93         	971.1000    	0.000000    	1               	;
 O-AV-94         	967.9000    	0.000000    	1               	;
 O-AV-99         	981.0000    	0.000000    	1               	;
 I-Pump-1        	602.6788    	0.000000    	1               	;
 I-Pump-2        	1000.1850   	0.000000    	1               	;
 I-Pump-4        	834.8940    	0.000000    	1               	;
 I-Pump-5        	834.2632    	0.000000    	1               	;

[RESERVOIRS]
;ID              	Head        	Pattern         
 R-1             	577.5823    	                	;
 R-2             	836.1208    	                	;

[TANKS]
;ID              	Elevation   	InitLevel   	MinLevel    	MaxLevel    	Diameter    	MinVol      	VolCurve        	Overflow
 T-1             	992.3408    	142         	132.6592    	157.6592    	58.0000     	350496.1425 	                	;
 T-2             	1010.7460   	129.2544    	114.2544    	149.2544    	70.0000     	439702.4601 	                	;
 T-3             	986.7521    	133.2479    	118.2479    	148.2479    	53.0000     	260876.5589 	                	;
 T-4             	979.0180    	135.9820    	115.9820    	155.9820    	65.0000     	384863.9104 	                	;
 T-5             	958.7988    	131.2012    	121.2012    	151.2012    	53.0000     	267392.0805 	                	;

[PIPES]
;ID              	Node1           	Node2           	Length      	Diameter    	Roughness   	MinorLoss   	Status
 P-1             	J-1             	J-1449          	592.1300    	6.0000      	100.0000    	0.0000      	Open  	;
 P-10            	J-18            	J-1400          	216.1990    	2.0000      	100.0000    	0.0000      	Open  	;
 P-100           	J-97            	J-1401          	1018.3300   	6.0000      	100.0000    	0.0000      	Open  	;
 P-1000          	J-474           	I-AV-591        	157.0390    	6.0000      	100.0000    	0.0000      	Open  	;
 P-1001          	J-980           	J-1074          	475.7090    	2.0000      	100.0000    	0.0000      	Open  	;
 P-1002          	J-979           	J-1029          	250.5290    	6.0000      	100.0000    	0.0000      	Open  	;
 P-1003          	J-617           	J-774           	480.5100    	6.0000      	140.0000    	0.0000      	Open  	;
 P-1004          	J-1075          	J-1076          	291.7600    	6.0000      	100.0000    	0.0000      	Open  	;
 P-1005          	J-1077          	J-377           	486.5400    	12.0000     	100.0000    	0.0000      	Open  	;
 P-1006          	J-754           	J-747           	120.6990    	8.0000      	140.0000    	0.0000      	Open  	;
 P-1007          	J-378           	I-AV-196        	956.7290    	6.0000      	140.0000    	0.0000      	Open  	;
 P-1008          	J-416           	J-431           	692.9890    	6.0000      	100.0000    	0.0000      	Open  	;
 P-1009          	J-709           	I-AV-460        	138.0590    	6.0000      	100.0000    	0.0000      	Open  	;
 P-101           	J-149           	J-1367          	189.5290    	6.0000      	100.0000    	0.0000      	Open  	;
 P-1010          	J-1079          	I-AV-233        	98.1390     	6.0000      	100.0000    	0.0000      	Open  	;
 P-1011          	J-748           	J-754           	157.7100    	8.0000      	140.0000    	0.0000      	Open  	;
 P-1012          	J-1080          	J-625           	407.3500    	6.0000      	140.0000    	0.0000      	Open  	;
 P-1013          	J-996           	I-AV-391        	89.6600     	6.0000      	100.0000    	0.0000      	Open  	;
 P-1014          	J-1081          	J-1082          	274.7390    	8.0000      	100.0000    	0.0000      	Open  	;
 P-1015          	J-84            	I-AV-731        	131.1190    	6.0000      	100.0000    	0.0000      	Open  	;
 P-1016          	J-427           	J-329           	261.8990    	6.0000      	100.0000    	0.0000      	Open  	;
 P-1017          	J-1083          	I-AV-539        	179.6790    	8.0000      	100.0000    	0.0000      	Open  	;
 P-1018          	J-141           	J-572           	928.4400    	12.0000     	100.0000    	0.0000      	Open  	;
 P-1019          	J-479           	J-1080          	694.0000    	6.0000      	140.0000    	0.0000      	Open  	;
 P-102           	J-1302          	I-AV-36         	227.9900    	6.0000      	140.0000    	0.0000      	Open  	;
 P-1020          	J-183           	I-AV-507        	691.2290    	6.0000      	100.0000    	0.0000      	Open  	;
 P-1021          	J-77            	J-1051          	155.3000    	6.0000      	100.0000    	0.0000      	Open  	;
 P-1022          	J-489           	J-1085          	83.1500     	2.0000      	100.0000    	0.0000      	Open  	;
 P-1023          	J-424           	J-487           	75.9190     	6.0000      	140.0000    	0.0000      	Open  	;
 P-1024          	J-864           	I-AV-335        	140.1790    	6.0000      	140.0000    	0.0000      	Open  	;
 P-1025          	J-717           	I-AV-572        	239.2700    	6.0000      	100.0000    	0.0000      	Open  	;
 P-1026          	J-966           	J-556           	160.5390    	12.0000     	100.0000    	0.0000      	Open  	;
 P-1027          	J-383           	I-AV-374        	115.9700    	12.0000     	100.0000    	0.0000      	Open  	;
 P-1028          	J-313           	J-952           	206.9290    	6.0000      	100.0000    	0.0000      	Open  	;
 P-1029          	J-995           	I-AV-648        	179.8000    	8.0000      	140.0000    	0.0000      	Open  	;
 P-103           	J-152           	I-AV-252        	138.5200    	2.0000      	100.0000    	0.0000      	Open  	;
 P-1030          	J-1088          	J-906           	555.6500    	6.0000      	100.0000    	0.0000      	Open  	;
 P-1031          	J-900           	I-AV-649        	195.4600    	6.0000      	140.0000    	0.0000      	Open  	;
 P-1032          	J-377           	J-1090          	796.2890    	8.0000      	140.0000    	0.0000      	Open  	;
 P-1033          	J-865           	J-1091          	65.2900     	6.0000      	140.0000    	0.0000      	Open  	;
 P-1034          	J-1092          	J-940           	405.7900    	6.0000      	140.0000    	0.0000      	Open  	;
 P-1035          	J-304           	J-1093          	310.9100    	8.0000      	140.0000    	0.0000      	Open  	;
 P-1036          	J-766           	J-767           	624.4400    	6.0000      	140.0000    	0.0000      	Open  	;
 P-1037          	J-1094          	I-AV-43         	247.6300    	6.0000      	100.0000    	0.0000      	Open  	;
 P-1038          	J-1095          	I-AV-650        	290.8800    	6.0000      	150.0000    	0.0000      	Open  	;
 P-1039          	J-726           	J-810           	738.4090    	6.0000      	140.0000    	0.0000      	Open  	;
 P-104           	J-154           	J-155           	480.1190    	6.0000      	100.0000    	0.0000      	Open  	;
 P-1040          	J-400           	J-714           	183.9400    	6.0000      	140.0000    	0.0000      	Open  	;
 P-1041          	J-1096          	J-793           	314.2500    	6.0000      	140.0000    	0.0000      	Open  	;
 P-1042          	J-882           	J-1097          	174.7400    	8.0000      	140.0000    	0.0000      	Open  	;
 P-1043          	J-812           	J-1098          	824.1900    	6.0000      	140.0000    	0.0000      	Open  	;
 P-1044          	J-74            	I-AV-127        	274.0590    	18.0000     	140.0000    	0.0000      	Open  	;
 P-1045          	J-1076          	J-973           	268.9400    	6.0000      	100.0000    	0.0000      	Open  	;
 P-1046          	J-904           	I-AV-456        	149.9790    	6.0000      	100.0000    	0.0000      	Open  	;
 P-1047          	J-1099          	J-770           	93.2690     	6.0000      	100.0000    	0.0000      	Open  	;
 P-1048          	J-959           	J-1031          	389.3800    	2.0000      	100.0000    	0.0000      	Open  	;
 P-1049          	J-587           	I-AV-122        	315.6600    	6.0000      	100.0000    	0.0000      	Open  	;
 P-105           	J-156           	J-157           	244.8690    	8.0000      	100.0000    	0.0000      	Open  	;
 P-1050          	J-21            	J-675           	196.4790    	6.0000      	100.0000    	0.0000      	Open  	;
 P-1051          	J-1100          	I-AV-499        	529.6500    	6.0000      	100.0000    	0.0000      	Open  	;
 P-1052          	J-1055          	I-AV-584        	375.4290    	8.0000      	100.0000    	0.0000      	Open  	;
 P-1053          	J-528           	J-1101          	741.5390    	6.0000      	140.0000    	0.0000      	Open  	;
 P-1054          	J-622           	J-174           	340.3590    	6.0000      	100.0000    	0.0000      	Open  	;
 P-1055          	J-1102          	J-1018          	235.4100    	6.0000      	100.0000    	0.0000      	Open  	;
 P-1056          	J-1070          	I-AV-451        	242.4900    	6.0000      	100.0000    	0.0000      	Open  	;
 P-1057          	J-174           	J-1103          	85.8600     	6.0000      	100.0000    	0.0000      	Open  	;
 P-1058          	J-193           	J-693           	113.8700    	6.0000      	100.0000    	0.0000      	Open  	;
 P-1059          	J-318           	J-1104          	210.5700    	6.0000      	100.0000    	0.0000      	Open  	;
 P-106           	J-158           	I-AV-487        	242.3090    	6.0000      	140.0000    	0.0000      	Open  	;
 P-1060          	J-387           	J-1105          	231.7700    	6.0000      	140.0000    	0.0000      	Open  	;
 P-1061          	J-1106          	J-1080          	298.9200    	6.0000      	140.0000    	0.0000      	Open  	;
 P-1062          	J-1107          	J-1027          	191.9290    	6.0000      	140.0000    	0.0000      	Open  	;
 P-1063          	J-1108          	I-AV-258        	554.9600    	6.0000      	100.0000    	0.0000      	Open  	;
 P-1064          	J-884           	I-AV-384        	321.2990    	6.0000      	100.0000    	0.0000      	Open  	;
 P-1065          	J-624           	J-623           	448.1190    	14.0000     	100.0000    	0.0000      	Open  	;
 P-1066          	J-257           	J-999           	1037.1090   	12.0000     	100.0000    	0.0000      	Open  	;
 P-1067          	J-751           	I-AV-57         	239.8500    	6.0000      	100.0000    	0.0000      	Open  	;
 P-1068          	J-1033          	J-1079          	77.1900     	6.0000      	100.0000    	0.0000      	Open  	;
 P-1069          	J-1087          	I-AV-647        	341.4590    	6.0000      	150.0000    	0.0000      	Open  	;
 P-107           	J-159           	I-AV-245        	1024.1400   	6.0000      	100.0000    	0.0000      	Open  	;
 P-1070          	J-1103          	J-1070          	205.6690    	6.0000      	100.0000    	0.0000      	Open  	;
 P-1071          	J-974           	I-AV-646        	740.4790    	6.0000      	100.0000    	0.0000      	Open  	;
 P-1072          	J-869           	J-268           	389.7500    	14.0000     	100.0000    	0.0000      	Open  	;
 P-1073          	J-459           	J-757           	294.8900    	6.0000      	140.0000    	0.0000      	Open  	;
 P-1074          	J-919           	J-502           	78.5000     	12.0000     	100.0000    	0.0000      	Open  	;
 P-1075          	J-515           	I-AV-638        	140.1790    	6.0000      	140.0000    	0.0000      	Open  	;
 P-1076          	J-705           	J-1111          	329.7000    	6.0000      	100.0000    	0.0000      	Open  	;
 P-1077          	J-1112          	I-AV-183        	134.2500    	2.0000      	100.0000    	0.0000      	Open  	;
 P-1078          	J-1113          	J-1114          	323.6490    	6.0000      	140.0000    	0.0000      	Open  	;
 P-1079          	J-770           	J-1115          	222.6390    	6.0000      	100.0000    	0.0000      	Open  	;
 P-108           	J-49            	I-AV-435        	162.7790    	10.0000     	100.0000    	0.0000      	Open  	;
 P-1080          	J-1116          	J-1117          	428.8500    	6.0000      	140.0000    	0.0000      	Open  	;
 P-1081          	J-1118          	J-1075          	326.7090    	6.0000      	100.0000    	0.0000      	Open  	;
 P-1082          	J-1079          	J-1119          	302.0590    	2.0000      	100.0000    	0.0000      	Open  	;
 P-1083          	J-909           	J-1083          	321.7990    	8.0000      	100.0000    	0.0000      	Open  	;
 P-1084          	J-419           	I-AV-693        	2004.4000   	16.0000     	140.0000    	0.0000      	Open  	;
 P-1085          	J-948           	I-AV-191        	144.9490    	6.0000      	100.0000    	0.0000      	Open  	;
 P-1086          	J-290           	I-AV-93         	91.9700     	6.0000      	100.0000    	0.0000      	Open  	;
 P-1087          	J-1120          	I-AV-277        	178.1000    	6.0000      	140.0000    	0.0000      	Open  	;
 P-1088          	J-1121          	J-948           	391.7500    	6.0000      	100.0000    	0.0000      	Open  	;
 P-1089          	J-207           	J-1122          	266.4700    	3.0000      	100.0000    	0.0000      	Open  	;
 P-109           	J-51            	J-162           	49.7590     	6.0000      	100.0000    	0.0000      	Open  	;
 P-1090          	J-1123          	J-207           	216.5500    	3.0000      	100.0000    	0.0000      	Open  	;
 P-1091          	J-1124          	J-189           	455.7390    	8.0000      	100.0000    	0.0000      	Open  	;
 P-1092          	J-239           	I-AV-519        	234.4290    	16.0000     	140.0000    	0.0000      	Open  	;
 P-1093          	J-562           	J-605           	163.4600    	2.0000      	140.0000    	0.0000      	Open  	;
 P-1094          	J-978           	I-AV-542        	358.3990    	8.0000      	100.0000    	0.0000      	Open  	;
 P-1096          	J-1126          	J-1127          	507.3500    	8.0000      	140.0000    	0.0000      	Open  	;
 P-1097          	J-267           	J-733           	75.3790     	6.0000      	100.0000    	0.0000      	Open  	;
 P-1098          	J-511           	J-590           	599.0800    	8.0000      	140.0000    	0.0000      	Open  	;
 P-1099          	J-1128          	I-AV-16         	294.9500    	12.0000     	100.0000    	0.0000      	Open  	;
 P-11            	J-20            	I-AV-730        	1594.0400   	10.0000     	100.0000    	0.0000      	Open  	;
 P-110           	J-163           	I-AV-735        	697.0100    	6.0000      	100.0000    	0.0000      	Open  	;
 P-1100          	J-1129          	J-1130          	139.3890    	8.0000      	140.0000    	0.0000      	Open  	;
 P-1101          	J-697           	I-AV-290        	146.7700    	14.0000     	100.0000    	0.0000      	Open  	;
 P-1102          	J-1129          	J-876           	396.8390    	8.0000      	140.0000    	0.0000      	Open  	;
 P-1103          	J-454           	I-AV-165        	353.1190    	6.0000      	100.0000    	0.0000      	Open  	;
 P-1104          	J-940           	J-1131          	294.8200    	6.0000      	140.0000    	0.0000      	Open  	;
 P-1105          	J-166           	I-AV-704        	447.0890    	16.0000     	100.0000    	0.0000      	Open  	;
 P-1106          	J-786           	J-975           	875.3490    	8.0000      	150.0000    	0.0000      	Open  	;
 P-1107          	J-1132          	I-AV-136        	337.8590    	12.0000     	140.0000    	0.0000      	Open  	;
 P-1108          	J-1133          	J-924           	235.3600    	4.0000      	150.0000    	0.0000      	Open  	;
 P-1109          	J-1134          	J-983           	307.6090    	6.0000      	140.0000    	0.0000      	Open  	;
 P-111           	J-164           	J-23            	174.6190    	6.0000      	100.0000    	0.0000      	Open  	;
 P-1110          	J-1135          	J-1129          	119.5690    	8.0000      	140.0000    	0.0000      	Open  	;
 P-1111          	J-1136          	J-432           	701.1900    	6.0000      	100.0000    	0.0000      	Open  	;
 P-1112          	J-854           	J-1428          	312.9290    	6.0000      	100.0000    	0.0000      	Open  	;
 P-1113          	J-747           	I-AV-142        	176.4900    	8.0000      	140.0000    	0.0000      	Open  	;
 P-1114          	J-832           	J-847           	57.3100     	12.0000     	100.0000    	0.0000      	Open  	;
 P-1115          	J-1108          	I-AV-60         	232.7700    	6.0000      	100.0000    	0.0000      	Open  	;
 P-1116          	J-453           	J-918           	192.3690    	6.0000      	100.0000    	0.0000      	Open  	;
 P-1117          	J-698           	J-1322          	337.9590    	6.0000      	100.0000    	0.0000      	Open  	;
 P-1118          	J-1138          	J-1424          	124.0590    	6.0000      	100.0000    	0.0000      	Open  	;
 P-1119          	J-392           	J-1358          	144.1190    	6.0000      	100.0000    	0.0000      	Open  	;
 P-112           	J-165           	I-AV-642        	127.1600    	6.0000      	100.0000    	0.0000      	Open  	;
 P-1120          	J-1140          	J-1353          	1466.1090   	8.0000      	100.0000    	0.0000      	Open  	;
 P-1121          	J-1082          	J-594           	857.2390    	8.0000      	140.0000    	0.0000      	Open  	;
 P-1122          	J-1014          	I-AV-379        	136.1690    	6.0000      	100.0000    	0.0000      	Open  	;
 P-1123          	J-287           	J-1406          	111.1690    	12.0000     	140.0000    	0.0000      	Open  	;
 P-1124          	J-246           	J-145           	163.3300    	6.0000      	100.0000    	0.0000      	Open  	;
 P-1125          	J-1014          	J-629           	132.6190    	6.0000      	100.0000    	0.0000      	Open  	;
 P-1126          	J-150           	I-AV-380        	258.4700    	6.0000      	100.0000    	0.0000      	Open  	;
 P-1127          	J-455           	J-296           	370.9800    	12.0000     	100.0000    	0.0000      	Open  	;
 P-1128          	J-888           	I-AV-381        	134.5890    	12.0000     	140.0000    	0.0000      	Open  	;
 P-1129          	J-1142          	I-AV-372        	269.4890    	12.0000     	100.0000    	0.0000      	Open  	;
 P-113           	J-131           	J-430           	396.5000    	16.0000     	100.0000    	0.0000      	Open  	;
 P-1130          	J-1143          	J-861           	277.4500    	6.0000      	100.0000    	0.0000      	Open  	;
 P-1131          	J-748           	J-658           	108.4490    	6.0000      	100.0000    	0.0000      	Open  	;
 P-1132          	J-664           	J-746           	470.6790    	6.0000      	140.0000    	0.0000      	Open  	;
 P-1133          	J-765           	J-1144          	42.1100     	12.0000     	100.0000    	0.0000      	Open  	;
 P-1134          	J-458           	I-AV-667        	189.0590    	12.0000     	100.0000    	0.0000      	Open  	;
 P-1135          	J-795           	J-1382          	104.1390    	12.0000     	100.0000    	0.0000      	Open  	;
 P-1136          	J-1011          	I-AV-274        	1039.7290   	12.0000     	100.0000    	0.0000      	Open  	;
 P-1137          	J-161           	J-488           	72.2790     	10.0000     	100.0000    	0.0000      	Open  	;
 P-1138          	J-651           	J-664           	1210.1090   	6.0000      	140.0000    	0.0000      	Open  	;
 P-1139          	J-1315          	I-AV-360        	137.5500    	6.0000      	100.0000    	0.0000      	Open  	;
 P-114           	J-167           	J-36            	575.6300    	12.0000     	100.0000    	0.0000      	Open  	;
 P-1140          	J-349           	I-AV-200        	396.0190    	6.0000      	100.0000    	0.0000      	Open  	;
 P-1141          	J-1027          	J-995           	438.6790    	8.0000      	140.0000    	0.0000      	Open  	;
 P-1142          	J-1146          	I-AV-158        	155.7500    	6.0000      	100.0000    	0.0000      	Open  	;
 P-1143          	J-1006          	I-AV-58         	179.0500    	6.0000      	100.0000    	0.0000      	Open  	;
 P-1144          	J-849           	I-AV-261        	211.7400    	8.0000      	100.0000    	0.0000      	Open  	;
 P-1145          	J-528           	I-AV-134        	241.0590    	12.0000     	140.0000    	0.0000      	Open  	;
 P-1146          	J-557           	I-AV-364        	264.1490    	12.0000     	100.0000    	0.0000      	Open  	;
 P-1147          	J-460           	J-63            	105.1100    	18.0000     	100.0000    	0.0000      	Open  	;
 P-1148          	J-1148          	I-AV-234        	341.7390    	4.0000      	100.0000    	0.0000      	Open  	;
 P-1149          	J-999           	J-586           	2807.2290   	12.0000     	100.0000    	0.0000      	Open  	;
 P-115           	J-169           	I-AV-497        	155.5700    	6.0000      	100.0000    	0.0000      	Open  	;
 P-1150          	J-1298          	I-AV-534        	905.2000    	6.0000      	140.0000    	0.0000      	Open  	;
 P-1151          	J-1082          	J-1149          	124.2600    	8.0000      	100.0000    	0.0000      	Open  	;
 P-1152          	J-868           	J-335           	332.6490    	6.0000      	100.0000    	0.0000      	Open  	;
 P-1153          	J-628           	J-1150          	117.9190    	6.0000      	100.0000    	0.0000      	Open  	;
 P-1154          	J-757           	J-1151          	348.3690    	6.0000      	140.0000    	0.0000      	Open  	;
 P-1155          	J-345           	J-1152          	906.4600    	6.0000      	100.0000    	0.0000      	Open  	;
 P-1156          	J-526           	J-816           	363.5000    	6.0000      	140.0000    	0.0000      	Open  	;
 P-1157          	J-1144          	J-1142          	39.3690     	12.0000     	100.0000    	0.0000      	Open  	;
 P-1158          	J-574           	I-AV-655        	149.7500    	12.0000     	100.0000    	0.0000      	Open  	;
 P-1159          	J-1153          	J-656           	348.3090    	6.0000      	140.0000    	0.0000      	Open  	;
 P-116           	J-16            	J-170           	118.1290    	6.0000      	140.0000    	0.0000      	Open  	;
 P-1160          	J-1147          	J-1025          	311.5890    	6.0000      	100.0000    	0.0000      	Open  	;
 P-1161          	J-724           	J-439           	84.7790     	6.0000      	100.0000    	0.0000      	Open  	;
 P-1162          	J-1154          	J-2             	158.0800    	6.0000      	100.0000    	0.0000      	Open  	;
 P-1163          	J-888           	J-319           	720.6190    	12.0000     	100.0000    	0.0000      	Open  	;
 P-1164          	J-1013          	J-1155          	1521.6990   	6.0000      	140.0000    	0.0000      	Open  	;
 P-1165          	J-780           	J-1156          	306.7090    	6.0000      	140.0000    	0.0000      	Open  	;
 P-1166          	J-1157          	I-AV-113        	165.4700    	6.0000      	140.0000    	0.0000      	Open  	;
 P-1167          	J-932           	J-245           	5950.8190   	8.0000      	100.0000    	0.0000      	Open  	;
 P-1168          	J-691           	J-865           	237.2100    	6.0000      	140.0000    	0.0000      	Open  	;
 P-1169          	J-896           	J-732           	838.9890    	6.0000      	140.0000    	0.0000      	Open  	;
 P-117           	J-94            	J-72            	218.0890    	6.0000      	150.0000    	0.0000      	Open  	;
 P-1170          	J-254           	J-692           	112.1690    	1.0000      	100.0000    	0.0000      	Open  	;
 P-1171          	J-842           	J-1158          	1268.0400   	6.0000      	140.0000    	0.0000      	Open  	;
 P-1172          	J-939           	J-1159          	185.6990    	16.0000     	140.0000    	0.0000      	Open  	;
 P-1173          	J-235           	I-AV-299        	95.1800     	12.0000     	140.0000    	0.0000      	Open  	;
 P-1174          	J-1160          	J-347           	276.2390    	6.0000      	140.0000    	0.0000      	Open  	;
 P-1175          	J-949           	I-AV-12         	1599.0200   	12.0000     	100.0000    	0.0000      	Open  	;
 P-1176          	J-10            	I-AV-37         	103.1690    	12.0000     	100.0000    	0.0000      	Open  	;
 P-1177          	J-1137          	J-1072          	791.2600    	12.0000     	100.0000    	0.0000      	Open  	;
 P-1178          	J-587           	J-1137          	351.0290    	12.0000     	100.0000    	0.0000      	Open  	;
 P-1179          	J-1019          	J-817           	256.4200    	12.0000     	100.0000    	0.0000      	Open  	;
 P-118           	J-157           	J-59            	320.1790    	8.0000      	140.0000    	0.0000      	Open  	;
 P-1180          	J-1021          	J-1019          	124.6100    	12.0000     	100.0000    	0.0000      	Open  	;
 P-1181          	J-1161          	J-1162          	153.5200    	6.0000      	140.0000    	0.0000      	Open  	;
 P-1182          	J-1091          	J-1216          	641.7000    	6.0000      	140.0000    	0.0000      	Open  	;
 P-1183          	J-1164          	J-1159          	170.4790    	6.0000      	100.0000    	0.0000      	Open  	;
 P-1184          	J-598           	J-1060          	237.0000    	12.0000     	100.0000    	0.0000      	Open  	;
 P-1185          	J-1165          	J-1166          	649.8300    	8.0000      	140.0000    	0.0000      	Open  	;
 P-1186          	J-852           	J-1167          	504.6790    	6.0000      	140.0000    	0.0000      	Open  	;
 P-1187          	J-1168          	J-1169          	267.6000    	6.0000      	140.0000    	0.0000      	Open  	;
 P-1188          	J-801           	J-800           	971.5800    	12.0000     	100.0000    	0.0000      	Open  	;
 P-1189          	J-746           	I-AV-179        	251.6790    	6.0000      	140.0000    	0.0000      	Open  	;
 P-119           	J-28            	J-16            	53.0990     	6.0000      	140.0000    	0.0000      	Open  	;
 P-1190          	J-756           	J-574           	355.7790    	12.0000     	100.0000    	0.0000      	Open  	;
 P-1191          	J-986           	I-AV-707        	193.1190    	10.0000     	100.0000    	0.0000      	Open  	;
 P-1192          	J-1170          	J-1171          	372.3900    	6.0000      	140.0000    	0.0000      	Open  	;
 P-1193          	J-374           	I-AV-431        	171.5590    	10.0000     	100.0000    	0.0000      	Open  	;
 P-1194          	J-1170          	J-1027          	318.6490    	8.0000      	140.0000    	0.0000      	Open  	;
 P-1195          	J-1172          	J-890           	299.0000    	12.0000     	100.0000    	0.0000      	Open  	;
 P-1196          	J-1173          	J-1126          	41.6590     	8.0000      	140.0000    	0.0000      	Open  	;
 P-1197          	J-1174          	J-1175          	192.3690    	8.0000      	140.0000    	0.0000      	Open  	;
 P-1198          	J-1165          	J-1176          	38.3490     	8.0000      	140.0000    	0.0000      	Open  	;
 P-1199          	J-721           	J-558           	157.5700    	12.0000     	100.0000    	0.0000      	Open  	;
 P-12            	J-22            	I-AV-169        	192.7400    	12.0000     	140.0000    	0.0000      	Open  	;
 P-120           	J-171           	J-90            	511.5490    	3.0000      	100.0000    	0.0000      	Open  	;
 P-1200          	J-1177          	J-805           	33.8400     	8.0000      	140.0000    	0.0000      	Open  	;
 P-1201          	J-969           	J-1168          	214.4700    	6.0000      	140.0000    	0.0000      	Open  	;
 P-1202          	J-890           	J-721           	289.8590    	12.0000     	100.0000    	0.0000      	Open  	;
 P-1203          	J-1168          	J-1178          	477.1000    	6.0000      	140.0000    	0.0000      	Open  	;
 P-1204          	J-144           	J-1179          	217.8990    	10.0000     	100.0000    	0.0000      	Open  	;
 P-1205          	J-103           	J-1180          	692.6400    	12.0000     	140.0000    	0.0000      	Open  	;
 P-1206          	J-800           	J-588           	753.4500    	12.0000     	100.0000    	0.0000      	Open  	;
 P-1207          	J-1126          	J-1197          	197.7590    	8.0000      	140.0000    	0.0000      	Open  	;
 P-1208          	J-1175          	J-1181          	63.9300     	8.0000      	140.0000    	0.0000      	Open  	;
 P-1209          	J-907           	J-514           	198.3890    	6.0000      	100.0000    	0.0000      	Open  	;
 P-121           	J-172           	J-1431          	156.5290    	6.0000      	100.0000    	0.0000      	Open  	;
 P-1210          	J-1181          	J-719           	105.7500    	8.0000      	140.0000    	0.0000      	Open  	;
 P-1211          	J-506           	I-AV-659        	335.7090    	12.0000     	140.0000    	0.0000      	Open  	;
 P-1212          	J-802           	J-1174          	64.5000     	8.0000      	140.0000    	0.0000      	Open  	;
 P-1213          	J-647           	I-AV-663        	738.7700    	12.0000     	140.0000    	0.0000      	Open  	;
 P-1214          	J-1182          	J-195           	266.7690    	12.0000     	100.0000    	0.0000      	Open  	;
 P-1215          	J-1046          	J-1183          	636.3900    	8.0000      	140.0000    	0.0000      	Open  	;
 P-1216          	J-1116          	J-1184          	180.9190    	6.0000      	140.0000    	0.0000      	Open  	;
 P-1217          	J-1065          	I-AV-194        	231.0800    	12.0000     	100.0000    	0.0000      	Open  	;
 P-1218          	J-1185          	J-1158          	697.9400    	6.0000      	100.0000    	0.0000      	Open  	;
 P-1219          	J-1180          	I-AV-66         	107.2200    	12.0000     	140.0000    	0.0000      	Open  	;
 P-122           	J-151           	I-AV-7          	432.0890    	6.0000      	100.0000    	0.0000      	Open  	;
 P-1220          	J-472           	I-AV-661        	415.9590    	12.0000     	140.0000    	0.0000      	Open  	;
 P-1221          	J-168           	J-1182          	129.1100    	12.0000     	100.0000    	0.0000      	Open  	;
 P-1222          	J-1132          	I-AV-128        	2055.6200   	12.0000     	140.0000    	0.0000      	Open  	;
 P-1223          	J-1186          	J-872           	428.1300    	14.0000     	140.0000    	0.0000      	Open  	;
 P-1224          	J-558           	J-851           	247.7500    	12.0000     	100.0000    	0.0000      	Open  	;
 P-1225          	J-1003          	I-AV-376        	99.3700     	12.0000     	100.0000    	0.0000      	Open  	;
 P-1226          	J-1077          	J-1187          	259.4500    	8.0000      	140.0000    	0.0000      	Open  	;
 P-1227          	J-811           	J-1188          	231.6100    	6.0000      	140.0000    	0.0000      	Open  	;
 P-1228          	J-296           	J-1077          	878.1790    	12.0000     	100.0000    	0.0000      	Open  	;
 P-1229          	J-297           	I-AV-672        	917.5100    	12.0000     	140.0000    	0.0000      	Open  	;
 P-123           	J-174           	I-AV-413        	227.3200    	6.0000      	100.0000    	0.0000      	Open  	;
 P-1230          	J-44            	J-1052          	382.4500    	6.0000      	140.0000    	0.0000      	Open  	;
 P-1231          	J-1189          	J-321           	69.8190     	6.0000      	140.0000    	0.0000      	Open  	;
 P-1232          	J-1190          	J-321           	163.7400    	6.0000      	100.0000    	0.0000      	Open  	;
 P-1233          	J-1191          	J-1192          	1399.0990   	8.0000      	140.0000    	0.0000      	Open  	;
 P-1234          	J-44            	J-1021          	298.7200    	12.0000     	100.0000    	0.0000      	Open  	;
 P-1235          	J-1193          	J-1190          	408.0490    	6.0000      	140.0000    	0.0000      	Open  	;
 P-1236          	J-895           	J-1147          	53.9190     	6.0000      	100.0000    	0.0000      	Open  	;
 P-1237          	J-882           	J-1194          	126.0100    	8.0000      	140.0000    	0.0000      	Open  	;
 P-1238          	J-895           	J-1193          	103.0190    	6.0000      	140.0000    	0.0000      	Open  	;
 P-1239          	J-420           	J-1195          	181.5390    	12.0000     	140.0000    	0.0000      	Open  	;
 P-124           	J-108           	I-AV-225        	516.1500    	6.0000      	100.0000    	0.0000      	Open  	;
 P-1240          	J-1196          	J-78            	55.0290     	6.0000      	140.0000    	0.0000      	Open  	;
 P-1241          	J-982           	J-1197          	141.6190    	8.0000      	140.0000    	0.0000      	Open  	;
 P-1242          	J-370           	J-859           	203.6300    	8.0000      	140.0000    	0.0000      	Open  	;
 P-1243          	J-1193          	I-AV-156        	147.6900    	6.0000      	140.0000    	0.0000      	Open  	;
 P-1244          	J-707           	J-1199          	201.5500    	8.0000      	100.0000    	0.0000      	Open  	;
 P-1245          	J-851           	O-AV-114        	436.0790    	12.0000     	100.0000    	0.0000      	Open  	;
 P-1246          	J-933           	I-AV-671        	389.0590    	12.0000     	140.0000    	0.0000      	Open  	;
 P-1247          	J-1060          	J-215           	457.9890    	12.0000     	100.0000    	0.0000      	Open  	;
 P-1248          	J-881           	J-859           	153.4790    	8.0000      	140.0000    	0.0000      	Open  	;
 P-1249          	J-912           	J-1200          	462.0190    	6.0000      	140.0000    	0.0000      	Open  	;
 P-125           	J-97            	I-AV-737        	235.8990    	6.0000      	100.0000    	0.0000      	Open  	;
 P-1250          	J-949           	I-AV-181        	203.8890    	12.0000     	140.0000    	0.0000      	Open  	;
 P-1251          	J-857           	J-1172          	738.5990    	12.0000     	100.0000    	0.0000      	Open  	;
 P-1252          	J-1200          	J-1196          	356.9890    	6.0000      	140.0000    	0.0000      	Open  	;
 P-1253          	J-842           	J-228           	272.3500    	8.0000      	100.0000    	0.0000      	Open  	;
 P-1254          	J-1200          	I-AV-74         	624.7500    	6.0000      	140.0000    	0.0000      	Open  	;
 P-1255          	J-1203          	I-AV-522        	605.4890    	6.0000      	100.0000    	0.0000      	Open  	;
 P-1256          	J-1204          	J-1190          	655.7190    	6.0000      	100.0000    	0.0000      	Open  	;
 P-1257          	J-1158          	I-AV-529        	620.4890    	6.0000      	100.0000    	0.0000      	Open  	;
 P-1258          	J-1206          	J-836           	388.4400    	6.0000      	100.0000    	0.0000      	Open  	;
 P-1259          	J-1114          	J-836           	398.3990    	6.0000      	140.0000    	0.0000      	Open  	;
 P-126           	J-177           	J-110           	461.6190    	6.0000      	100.0000    	0.0000      	Open  	;
 P-1260          	J-407           	J-1310          	632.2000    	12.0000     	140.0000    	0.0000      	Open  	;
 P-1261          	J-1301          	I-AV-678        	108.4700    	12.0000     	100.0000    	0.0000      	Open  	;
 P-1262          	J-938           	I-AV-101        	252.0500    	6.0000      	100.0000    	0.0000      	Open  	;
 P-1263          	J-1007          	J-513           	152.9700    	18.0000     	100.0000    	0.0000      	Open  	;
 P-1264          	J-812           	I-AV-524        	559.1190    	12.0000     	100.0000    	0.0000      	Open  	;
 P-1265          	J-57            	J-182           	217.9190    	6.0000      	100.0000    	0.0000      	Open  	;
 P-1266          	J-1040          	I-AV-514        	1029.3000   	6.0000      	100.0000    	0.0000      	Open  	;
 P-1267          	J-1201          	I-AV-178        	418.9290    	12.0000     	140.0000    	0.0000      	Open  	;
 P-1268          	J-1317          	J-357           	364.6600    	18.0000     	140.0000    	0.0000      	Open  	;
 P-1269          	J-1318          	J-1317          	934.1090    	18.0000     	140.0000    	0.0000      	Open  	;
 P-127           	J-69            	J-64            	123.0400    	18.0000     	140.0000    	0.0000      	Open  	;
 P-1270          	J-1211          	I-AV-126        	448.4500    	6.0000      	100.0000    	0.0000      	Open  	;
 P-1271          	J-132           	J-836           	398.3200    	18.0000     	140.0000    	0.0000      	Open  	;
 P-1272          	J-1213          	J-1170          	407.8900    	8.0000      	140.0000    	0.0000      	Open  	;
 P-1273          	J-255           	J-857           	2295.5500   	12.0000     	100.0000    	0.0000      	Open  	;
 P-1274          	J-1214          	J-1177          	128.8500    	8.0000      	140.0000    	0.0000      	Open  	;
 P-1275          	J-1215          	J-961           	273.0400    	6.0000      	140.0000    	0.0000      	Open  	;
 P-1276          	J-1199          	I-AV-541        	425.5190    	6.0000      	100.0000    	0.0000      	Open  	;
 P-1277          	J-1191          	I-AV-125        	486.4890    	6.0000      	100.0000    	0.0000      	Open  	;
 P-1278          	J-637           	J-1241          	220.2400    	6.0000      	100.0000    	0.0000      	Open  	;
 P-1279          	J-1161          	J-1216          	339.9200    	6.0000      	140.0000    	0.0000      	Open  	;
 P-128           	J-12            	J-1443          	140.4290    	6.0000      	100.0000    	0.0000      	Open  	;
 P-1280          	J-1217          	J-1009          	111.0590    	8.0000      	140.0000    	0.0000      	Open  	;
 P-1281          	J-1199          	I-AV-540        	228.6390    	8.0000      	100.0000    	0.0000      	Open  	;
 P-1282          	J-1218          	J-1196          	463.0790    	6.0000      	140.0000    	0.0000      	Open  	;
 P-1283          	J-817           	J-158           	99.0990     	10.0000     	100.0000    	0.0000      	Open  	;
 P-1284          	J-231           	J-737           	125.1990    	8.0000      	140.0000    	0.0000      	Open  	;
 P-1285          	J-1219          	J-1311          	245.3690    	6.0000      	100.0000    	0.0000      	Open  	;
 P-1286          	J-1220          	J-1186          	266.2990    	14.0000     	140.0000    	0.0000      	Open  	;
 P-1287          	J-539           	J-1116          	353.0190    	6.0000      	140.0000    	0.0000      	Open  	;
 P-1288          	J-330           	I-AV-180        	153.4600    	6.0000      	100.0000    	0.0000      	Open  	;
 P-1289          	J-1072          	J-255           	255.8390    	12.0000     	100.0000    	0.0000      	Open  	;
 P-129           	J-178           	J-75            	350.5590    	10.0000     	100.0000    	0.0000      	Open  	;
 P-1290          	J-1221          	J-853           	225.6790    	6.0000      	100.0000    	0.0000      	Open  	;
 P-1291          	J-1164          	I-AV-46         	263.1000    	8.0000      	140.0000    	0.0000      	Open  	;
 P-1292          	J-853           	J-1164          	1770.6300   	6.0000      	100.0000    	0.0000      	Open  	;
 P-1293          	J-1203          	J-1223          	222.1900    	6.0000      	100.0000    	0.0000      	Open  	;
 P-1294          	J-862           	I-AV-323        	215.1000    	6.0000      	100.0000    	0.0000      	Open  	;
 P-1295          	J-1224          	J-495           	224.2400    	6.0000      	140.0000    	0.0000      	Open  	;
 P-1296          	J-862           	J-334           	229.3800    	2.0000      	100.0000    	0.0000      	Open  	;
 P-1297          	J-794           	J-495           	319.8390    	6.0000      	140.0000    	0.0000      	Open  	;
 P-1298          	J-1225          	J-1226          	361.6790    	6.0000      	140.0000    	0.0000      	Open  	;
 P-1299          	J-885           	J-536           	219.8990    	12.0000     	100.0000    	0.0000      	Open  	;
 P-13            	J-24            	J-1389          	288.0400    	8.0000      	100.0000    	0.0000      	Open  	;
 P-130           	J-117           	I-AV-713        	108.3000    	12.0000     	100.0000    	0.0000      	Open  	;
 P-1300          	J-1222          	J-897           	750.6400    	4.0000      	150.0000    	0.0000      	Open  	;
 P-1301          	J-1223          	I-AV-563        	220.0290    	6.0000      	100.0000    	0.0000      	Open  	;
 P-1302          	J-1228          	J-1412          	233.9190    	6.0000      	100.0000    	0.0000      	Open  	;
 P-1303          	J-1229          	I-AV-666        	702.9500    	6.0000      	100.0000    	0.0000      	Open  	;
 P-1304          	J-1221          	I-AV-223        	217.2500    	6.0000      	100.0000    	0.0000      	Open  	;
 P-1305          	J-1231          	J-794           	209.3390    	6.0000      	140.0000    	0.0000      	Open  	;
 P-1306          	J-1226          	I-AV-168        	237.1490    	6.0000      	140.0000    	0.0000      	Open  	;
 P-1307          	J-750           	J-1232          	226.2590    	6.0000      	100.0000    	0.0000      	Open  	;
 P-1308          	J-813           	J-199           	352.9800    	12.0000     	100.0000    	0.0000      	Open  	;
 P-1309          	J-379           	I-AV-557        	161.5590    	6.0000      	100.0000    	0.0000      	Open  	;
 P-131           	J-180           	I-AV-189        	216.2700    	2.0000      	100.0000    	0.0000      	Open  	;
 P-1310          	J-925           	J-1233          	334.2690    	6.0000      	140.0000    	0.0000      	Open  	;
 P-1311          	J-716           	J-864           	593.6300    	14.0000     	100.0000    	0.0000      	Open  	;
 P-1312          	J-1233          	J-1234          	156.2500    	6.0000      	140.0000    	0.0000      	Open  	;
 P-1313          	J-689           	J-1235          	490.8590    	6.0000      	140.0000    	0.0000      	Open  	;
 P-1314          	J-1003          	J-838           	400.0100    	6.0000      	100.0000    	0.0000      	Open  	;
 P-1315          	J-1209          	J-1236          	125.5890    	6.0000      	100.0000    	0.0000      	Open  	;
 P-1316          	J-1232          	J-938           	359.1190    	6.0000      	100.0000    	0.0000      	Open  	;
 P-1317          	J-897           	J-1233          	145.5500    	4.0000      	140.0000    	0.0000      	Open  	;
 P-1318          	J-1167          	J-1229          	970.2990    	6.0000      	100.0000    	0.0000      	Open  	;
 P-1319          	J-1237          	J-1227          	71.1690     	6.0000      	100.0000    	0.0000      	Open  	;
 P-132           	J-182           	J-157           	87.0400     	6.0000      	100.0000    	0.0000      	Open  	;
 P-1320          	J-1063          	J-1205          	366.1400    	12.0000     	100.0000    	0.0000      	Open  	;
 P-1321          	J-832           	I-AV-143        	213.9790    	12.0000     	100.0000    	0.0000      	Open  	;
 P-1322          	J-1238          	J-663           	294.7790    	6.0000      	140.0000    	0.0000      	Open  	;
 P-1323          	J-1221          	I-AV-445        	440.9700    	6.0000      	100.0000    	0.0000      	Open  	;
 P-1324          	J-1239          	J-496           	178.4190    	6.0000      	140.0000    	0.0000      	Open  	;
 P-1325          	J-1240          	J-1203          	45.4500     	6.0000      	100.0000    	0.0000      	Open  	;
 P-1326          	J-502           	I-AV-716        	164.0200    	10.0000     	100.0000    	0.0000      	Open  	;
 P-1327          	J-13            	I-AV-674        	529.5800    	14.0000     	140.0000    	0.0000      	Open  	;
 P-1328          	J-1142          	J-383           	209.1790    	12.0000     	100.0000    	0.0000      	Open  	;
 P-1329          	J-1205          	J-728           	367.8290    	12.0000     	100.0000    	0.0000      	Open  	;
 P-133           	J-183           	J-1430          	271.1400    	6.0000      	100.0000    	0.0000      	Open  	;
 P-1330          	J-1241          	J-1163          	57.7000     	6.0000      	100.0000    	0.0000      	Open  	;
 P-1331          	J-372           	J-1421          	138.3600    	6.0000      	100.0000    	0.0000      	Open  	;
 P-1332          	J-1222          	J-1234          	382.4700    	8.0000      	140.0000    	0.0000      	Open  	;
 P-1333          	J-379           	I-AV-568        	88.3390     	6.0000      	100.0000    	0.0000      	Open  	;
 P-1334          	J-407           	J-1425          	121.7300    	8.0000      	100.0000    	0.0000      	Open  	;
 P-1335          	J-1244          	J-1363          	170.7400    	6.0000      	100.0000    	0.0000      	Open  	;
 P-1336          	J-1069          	J-1219          	64.6600     	6.0000      	100.0000    	0.0000      	Open  	;
 P-1337          	J-31            	J-1245          	234.9700    	10.0000     	100.0000    	0.0000      	Open  	;
 P-1338          	J-249           	I-AV-520        	152.9100    	8.0000      	140.0000    	0.0000      	Open  	;
 P-1339          	J-514           	J-906           	283.9590    	6.0000      	100.0000    	0.0000      	Open  	;
 P-134           	J-185           	I-AV-239        	173.8390    	6.0000      	100.0000    	0.0000      	Open  	;
 P-1340          	J-1246          	J-1165          	536.6190    	8.0000      	140.0000    	0.0000      	Open  	;
 P-1341          	J-1246          	J-1247          	622.2890    	8.0000      	140.0000    	0.0000      	Open  	;
 P-1342          	J-1239          	J-1246          	109.6990    	8.0000      	140.0000    	0.0000      	Open  	;
 P-1343          	J-112           	J-1395          	300.9800    	6.0000      	100.0000    	0.0000      	Open  	;
 P-1344          	J-466           	J-777           	423.4500    	8.0000      	100.0000    	0.0000      	Open  	;
 P-1345          	J-483           	I-AV-569        	187.0890    	8.0000      	100.0000    	0.0000      	Open  	;
 P-1346          	J-322           	I-AV-267        	387.1000    	6.0000      	100.0000    	0.0000      	Open  	;
 P-1347          	J-653           	I-AV-255        	420.5400    	6.0000      	100.0000    	0.0000      	Open  	;
 P-1348          	J-169           	J-1004          	809.5800    	6.0000      	100.0000    	0.0000      	Open  	;
 P-1349          	J-483           	J-1439          	95.9700     	6.0000      	100.0000    	0.0000      	Open  	;
 P-135           	J-76            	J-1345          	298.3500    	2.0000      	100.0000    	0.0000      	Open  	;
 P-1350          	J-185           	I-AV-241        	601.7600    	6.0000      	100.0000    	0.0000      	Open  	;
 P-1351          	J-985           	J-448           	695.0000    	8.0000      	100.0000    	0.0000      	Open  	;
 P-1352          	J-951           	J-833           	465.6090    	6.0000      	140.0000    	0.0000      	Open  	;
 P-1353          	J-1249          	I-AV-543        	249.9290    	6.0000      	100.0000    	0.0000      	Open  	;
 P-1354          	J-1250          	J-1450          	313.6090    	6.0000      	100.0000    	0.0000      	Open  	;
 P-1355          	J-450           	I-AV-598        	211.3500    	6.0000      	100.0000    	0.0000      	Open  	;
 P-1356          	J-692           	J-755           	126.4400    	1.0000      	100.0000    	0.0000      	Open  	;
 P-1357          	J-298           	I-AV-606        	170.1300    	6.0000      	140.0000    	0.0000      	Open  	;
 P-1358          	J-482           	I-AV-632        	319.1700    	6.0000      	100.0000    	0.0000      	Open  	;
 P-1359          	J-797           	J-511           	1097.6090   	8.0000      	140.0000    	0.0000      	Open  	;
 P-136           	J-187           	J-91            	456.9800    	2.0000      	100.0000    	0.0000      	Open  	;
 P-1360          	J-1251          	J-1252          	161.1690    	6.0000      	140.0000    	0.0000      	Open  	;
 P-1361          	J-918           	I-AV-131        	173.9790    	6.0000      	100.0000    	0.0000      	Open  	;
 P-1362          	J-824           	I-AV-205        	145.9100    	6.0000      	100.0000    	0.0000      	Open  	;
 P-1363          	J-1254          	J-671           	111.2500    	6.0000      	140.0000    	0.0000      	Open  	;
 P-1364          	J-1255          	J-1256          	323.1790    	8.0000      	100.0000    	0.0000      	Open  	;
 P-1365          	J-1257          	I-AV-385        	208.2700    	8.0000      	100.0000    	0.0000      	Open  	;
 P-1366          	J-687           	I-AV-86         	151.1000    	12.0000     	100.0000    	0.0000      	Open  	;
 P-1367          	J-695           	I-AV-175        	269.7990    	6.0000      	100.0000    	0.0000      	Open  	;
 P-1368          	J-744           	I-AV-51         	178.7200    	6.0000      	100.0000    	0.0000      	Open  	;
 P-1369          	J-1258          	J-763           	139.3090    	12.0000     	100.0000    	0.0000      	Open  	;
 P-137           	J-179           	J-188           	342.4400    	12.0000     	100.0000    	0.0000      	Open  	;
 P-1370          	J-104           	I-AV-216        	317.3390    	6.0000      	100.0000    	0.0000      	Open  	;
 P-1371          	J-548           	J-880           	206.9700    	6.0000      	100.0000    	0.0000      	Open  	;
 P-1372          	J-839           	J-331           	487.8200    	6.0000      	140.0000    	0.0000      	Open  	;
 P-1373          	J-578           	J-1172          	361.1000    	8.0000      	100.0000    	0.0000      	Open  	;
 P-1374          	J-839           	J-1377          	149.5500    	6.0000      	140.0000    	0.0000      	Open  	;
 P-1375          	J-1256          	J-798           	301.9890    	8.0000      	100.0000    	0.0000      	Open  	;
 P-1376          	J-1053          	J-103           	369.2900    	6.0000      	100.0000    	0.0000      	Open  	;
 P-1377          	J-960           	J-104           	285.2600    	6.0000      	100.0000    	0.0000      	Open  	;
 P-1378          	J-5             	I-AV-177        	106.4400    	6.0000      	100.0000    	0.0000      	Open  	;
 P-1379          	J-395           	J-809           	494.8390    	8.0000      	100.0000    	0.0000      	Open  	;
 P-138           	J-52            	I-AV-358        	156.3000    	6.0000      	100.0000    	0.0000      	Open  	;
 P-1380          	J-778           	I-AV-574        	160.9600    	6.0000      	100.0000    	0.0000      	Open  	;
 P-1381          	J-1086          	J-1438          	331.2000    	6.0000      	100.0000    	0.0000      	Open  	;
 P-1382          	J-1259          	I-AV-73         	580.0700    	6.0000      	140.0000    	0.0000      	Open  	;
 P-1383          	J-1006          	J-880           	267.9700    	6.0000      	100.0000    	0.0000      	Open  	;
 P-1384          	J-983           	J-1129          	555.0000    	8.0000      	140.0000    	0.0000      	Open  	;
 P-1385          	J-1109          	J-1228          	194.5200    	6.0000      	100.0000    	0.0000      	Open  	;
 P-1386          	J-526           	J-1251          	863.4000    	6.0000      	140.0000    	0.0000      	Open  	;
 P-1387          	J-585           	J-1402          	308.0190    	6.0000      	100.0000    	0.0000      	Open  	;
 P-1388          	J-892           	J-1260          	558.3200    	6.0000      	140.0000    	0.0000      	Open  	;
 P-1389          	J-835           	J-911           	419.0590    	6.0000      	100.0000    	0.0000      	Open  	;
 P-139           	J-189           	I-AV-551        	101.3890    	6.0000      	100.0000    	0.0000      	Open  	;
 P-1390          	J-983           	J-875           	987.4890    	6.0000      	140.0000    	0.0000      	Open  	;
 P-1391          	J-1249          	I-AV-546        	145.6100    	6.0000      	100.0000    	0.0000      	Open  	;
 P-1392          	J-1261          	I-AV-50         	181.1790    	6.0000      	100.0000    	0.0000      	Open  	;
 P-1393          	J-435           	J-334           	212.2500    	6.0000      	100.0000    	0.0000      	Open  	;
 P-1394          	J-220           	J-1257          	320.7600    	8.0000      	100.0000    	0.0000      	Open  	;
 P-1395          	J-1227          	J-1262          	501.8690    	6.0000      	100.0000    	0.0000      	Open  	;
 P-1396          	J-685           	J-1263          	376.0100    	8.0000      	100.0000    	0.0000      	Open  	;
 P-1397          	J-1252          	J-1264          	245.3090    	8.0000      	140.0000    	0.0000      	Open  	;
 P-1398          	J-968           	J-67            	132.0500    	2.0000      	100.0000    	0.0000      	Open  	;
 P-1399          	J-1266          	J-641           	379.5100    	4.0000      	100.0000    	0.0000      	Open  	;
 P-14            	J-26            	J-1381          	86.6600     	6.0000      	100.0000    	0.0000      	Open  	;
 P-140           	J-84            	J-83            	227.2890    	6.0000      	100.0000    	0.0000      	Open  	;
 P-1400          	J-1262          	I-AV-559        	229.7500    	6.0000      	100.0000    	0.0000      	Open  	;
 P-1401          	J-1223          	I-AV-562        	252.6690    	6.0000      	100.0000    	0.0000      	Open  	;
 P-1402          	J-1267          	J-1268          	211.4400    	6.0000      	100.0000    	0.0000      	Open  	;
 P-1403          	J-873           	J-1251          	363.0000    	6.0000      	140.0000    	0.0000      	Open  	;
 P-1404          	J-741           	J-771           	238.8390    	8.0000      	140.0000    	0.0000      	Open  	;
 P-1405          	J-1269          	I-AV-586        	146.0700    	6.0000      	100.0000    	0.0000      	Open  	;
 P-1406          	J-1270          	J-229           	115.1800    	1.0000      	100.0000    	0.0000      	Open  	;
 P-1407          	J-879           	I-AV-49         	72.1290     	6.0000      	100.0000    	0.0000      	Open  	;
 P-1408          	J-1272          	J-685           	304.8390    	8.0000      	100.0000    	0.0000      	Open  	;
 P-1409          	J-691           	J-671           	1084.7900   	6.0000      	140.0000    	0.0000      	Open  	;
 P-141           	J-190           	J-191           	285.9500    	2.0000      	100.0000    	0.0000      	Open  	;
 P-1410          	J-1268          	J-1152          	182.0590    	8.0000      	100.0000    	0.0000      	Open  	;
 P-1411          	J-777           	J-1268          	228.7290    	8.0000      	100.0000    	0.0000      	Open  	;
 P-1412          	J-1269          	I-AV-589        	115.1390    	8.0000      	100.0000    	0.0000      	Open  	;
 P-1413          	J-322           	I-AV-259        	77.2790     	6.0000      	100.0000    	0.0000      	Open  	;
 P-1414          	J-1273          	J-1202          	57.7290     	6.0000      	100.0000    	0.0000      	Open  	;
 P-1415          	J-977           	J-898           	128.6900    	8.0000      	150.0000    	0.0000      	Open  	;
 P-1416          	J-320           	I-AV-479        	137.8000    	8.0000      	100.0000    	0.0000      	Open  	;
 P-1417          	J-1274          	J-433           	173.3800    	6.0000      	100.0000    	0.0000      	Open  	;
 P-1418          	J-992           	I-AV-739        	208.6990    	6.0000      	100.0000    	0.0000      	Open  	;
 P-1419          	J-1128          	J-1380          	230.1000    	6.0000      	100.0000    	0.0000      	Open  	;
 P-142           	J-192           	J-51            	117.8090    	6.0000      	100.0000    	0.0000      	Open  	;
 P-1420          	J-975           	J-977           	272.7090    	8.0000      	150.0000    	0.0000      	Open  	;
 P-1421          	J-898           	J-925           	71.8490     	8.0000      	140.0000    	0.0000      	Open  	;
 P-1422          	J-873           	J-223           	323.4700    	6.0000      	140.0000    	0.0000      	Open  	;
 P-1423          	J-953           	J-1272          	286.2000    	8.0000      	100.0000    	0.0000      	Open  	;
 P-1424          	J-1258          	J-199           	215.9490    	6.0000      	100.0000    	0.0000      	Open  	;
 P-1425          	J-442           	I-AV-162        	360.5590    	6.0000      	100.0000    	0.0000      	Open  	;
 P-1426          	J-1277          	J-1413          	165.0890    	6.0000      	100.0000    	0.0000      	Open  	;
 P-1427          	J-911           	J-1218          	244.0200    	6.0000      	100.0000    	0.0000      	Open  	;
 P-1428          	J-814           	J-160           	349.9200    	6.0000      	100.0000    	0.0000      	Open  	;
 P-1429          	J-672           	J-1140          	176.4490    	6.0000      	140.0000    	0.0000      	Open  	;
 P-143           	J-120           	J-89            	196.4400    	2.0000      	100.0000    	0.0000      	Open  	;
 P-1430          	J-1278          	J-1109          	181.5390    	2.0000      	100.0000    	0.0000      	Open  	;
 P-1431          	J-1279          	J-1280          	306.8200    	6.0000      	140.0000    	0.0000      	Open  	;
 P-1432          	J-1140          	J-1264          	1321.7900   	8.0000      	140.0000    	0.0000      	Open  	;
 P-1433          	J-739           	J-1445          	931.1090    	6.0000      	100.0000    	0.0000      	Open  	;
 P-1434          	J-1282          	J-953           	1147.2800   	6.0000      	100.0000    	0.0000      	Open  	;
 P-1435          	J-1279          	J-1283          	420.7500    	12.0000     	140.0000    	0.0000      	Open  	;
 P-1436          	J-469           	I-AV-452        	146.0890    	6.0000      	100.0000    	0.0000      	Open  	;
 P-1437          	J-629           	J-596           	334.0790    	6.0000      	100.0000    	0.0000      	Open  	;
 P-1438          	J-319           	I-AV-545        	151.1790    	6.0000      	100.0000    	0.0000      	Open  	;
 P-1439          	J-336           	J-542           	304.4890    	6.0000      	100.0000    	0.0000      	Open  	;
 P-144           	J-2             	I-AV-714        	277.2090    	6.0000      	100.0000    	0.0000      	Open  	;
 P-1440          	J-1284          	J-1285          	461.5000    	2.0000      	140.0000    	0.0000      	Open  	;
 P-1441          	J-684           	I-AV-552        	205.2100    	6.0000      	100.0000    	0.0000      	Open  	;
 P-1442          	J-142           	I-AV-549        	165.4190    	6.0000      	100.0000    	0.0000      	Open  	;
 P-1443          	J-753           	J-1279          	374.8290    	12.0000     	140.0000    	0.0000      	Open  	;
 P-1444          	J-969           	J-837           	209.6300    	6.0000      	100.0000    	0.0000      	Open  	;
 P-1445          	J-753           	J-1066          	399.4100    	12.0000     	140.0000    	0.0000      	Open  	;
 P-1446          	J-625           	J-753           	400.1300    	6.0000      	140.0000    	0.0000      	Open  	;
 P-1447          	J-19            	J-312           	502.6190    	6.0000      	100.0000    	0.0000      	Open  	;
 P-1448          	J-347           	J-1226          	158.2700    	6.0000      	140.0000    	0.0000      	Open  	;
 P-1449          	J-503           	J-1416          	228.9600    	6.0000      	100.0000    	0.0000      	Open  	;
 P-145           	J-193           	J-194           	345.3290    	2.0000      	140.0000    	0.0000      	Open  	;
 P-1450          	J-556           	J-1094          	314.3090    	6.0000      	100.0000    	0.0000      	Open  	;
 P-1451          	J-1284          	J-1022          	110.8790    	8.0000      	100.0000    	0.0000      	Open  	;
 P-1452          	J-1264          	I-AV-564        	225.0800    	8.0000      	100.0000    	0.0000      	Open  	;
 P-1453          	J-672           	J-688           	852.0590    	8.0000      	140.0000    	0.0000      	Open  	;
 P-1454          	J-981           	J-1286          	160.6600    	6.0000      	140.0000    	0.0000      	Open  	;
 P-1455          	J-1025          	J-878           	309.2600    	6.0000      	100.0000    	0.0000      	Open  	;
 P-1456          	J-1066          	J-1067          	589.4500    	6.0000      	140.0000    	0.0000      	Open  	;
 P-1457          	J-1218          	J-55            	106.5890    	6.0000      	100.0000    	0.0000      	Open  	;
 P-1458          	J-1287          	J-978           	134.5800    	6.0000      	100.0000    	0.0000      	Open  	;
 P-1459          	J-1023          	J-1259          	461.8500    	6.0000      	140.0000    	0.0000      	Open  	;
 P-146           	J-20            	J-163           	743.4090    	10.0000     	100.0000    	0.0000      	Open  	;
 P-1460          	J-463           	I-AV-163        	119.5690    	8.0000      	100.0000    	0.0000      	Open  	;
 P-1461          	J-1234          	J-981           	287.7690    	6.0000      	140.0000    	0.0000      	Open  	;
 P-1462          	J-530           	J-351           	753.1590    	12.0000     	140.0000    	0.0000      	Open  	;
 P-1463          	J-1288          	J-1390          	423.0490    	6.0000      	100.0000    	0.0000      	Open  	;
 P-1464          	J-686           	I-AV-107        	244.2100    	6.0000      	100.0000    	0.0000      	Open  	;
 P-1465          	J-1260          	J-826           	365.2300    	6.0000      	140.0000    	0.0000      	Open  	;
 P-1466          	J-519           	I-AV-621        	558.8490    	6.0000      	100.0000    	0.0000      	Open  	;
 P-1467          	J-609           	J-1260          	329.7200    	6.0000      	140.0000    	0.0000      	Open  	;
 P-1468          	J-438           	I-AV-99         	348.6600    	6.0000      	100.0000    	0.0000      	Open  	;
 P-1469          	J-966           	I-AV-41         	324.9400    	6.0000      	100.0000    	0.0000      	Open  	;
 P-147           	J-195           	J-566           	52.5490     	12.0000     	100.0000    	0.0000      	Open  	;
 P-1470          	J-937           	J-1157          	416.9890    	6.0000      	140.0000    	0.0000      	Open  	;
 P-1471          	J-1259          	J-1285          	283.0400    	6.0000      	140.0000    	0.0000      	Open  	;
 P-1472          	J-530           	J-882           	121.6390    	8.0000      	140.0000    	0.0000      	Open  	;
 P-1473          	J-1276          	J-454           	110.0800    	6.0000      	100.0000    	0.0000      	Open  	;
 P-1474          	J-901           	J-1270          	65.3490     	1.0000      	100.0000    	0.0000      	Open  	;
 P-1475          	J-80            	I-AV-229        	132.3500    	6.0000      	100.0000    	0.0000      	Open  	;
 P-1476          	J-1289          	I-AV-215        	156.9190    	6.0000      	100.0000    	0.0000      	Open  	;
 P-1477          	J-1290          	I-AV-211        	257.7500    	6.0000      	100.0000    	0.0000      	Open  	;
 P-1478          	J-1291          	J-1386          	165.7500    	6.0000      	140.0000    	0.0000      	Open  	;
 P-1479          	J-500           	J-250           	949.0700    	6.0000      	100.0000    	0.0000      	Open  	;
 P-148           	J-196           	J-101           	120.8090    	6.0000      	100.0000    	0.0000      	Open  	;
 P-1480          	J-638           	J-1053          	157.4190    	6.0000      	140.0000    	0.0000      	Open  	;
 P-1481          	J-958           	J-1290          	289.2500    	6.0000      	100.0000    	0.0000      	Open  	;
 P-1482          	J-1289          	J-958           	349.3590    	6.0000      	100.0000    	0.0000      	Open  	;
 P-1483          	J-1292          	J-1290          	274.0000    	6.0000      	100.0000    	0.0000      	Open  	;
 P-1484          	J-205           	J-519           	198.4190    	6.0000      	100.0000    	0.0000      	Open  	;
 P-1485          	J-142           	J-1394          	72.6690     	6.0000      	100.0000    	0.0000      	Open  	;
 P-1486          	J-362           	J-1293          	286.5590    	4.0000      	100.0000    	0.0000      	Open  	;
 P-1487          	J-1294          	J-578           	545.2600    	8.0000      	100.0000    	0.0000      	Open  	;
 P-1488          	J-463           	J-1276          	243.4100    	6.0000      	100.0000    	0.0000      	Open  	;
 P-1489          	J-821           	I-AV-231        	161.7200    	6.0000      	100.0000    	0.0000      	Open  	;
 P-149           	J-197           	J-15            	110.6900    	6.0000      	140.0000    	0.0000      	Open  	;
 P-1490          	J-1295          	J-1088          	258.5400    	3.0000      	100.0000    	0.0000      	Open  	;
 P-1491          	J-1296          	J-907           	214.3390    	6.0000      	100.0000    	0.0000      	Open  	;
 P-1492          	J-113           	J-119           	521.5590    	8.0000      	150.0000    	0.0000      	Open  	;
 P-1493          	J-125           	I-AV-710        	472.0190    	2.0000      	100.0000    	0.0000      	Open  	;
 P-1494          	J-156           	J-124           	187.9490    	18.0000     	100.0000    	0.0000      	Open  	;
 P-1495          	J-158           	J-986           	192.2790    	10.0000     	100.0000    	0.0000      	Open  	;
 P-1496          	J-209           	I-AV-297        	316.0100    	6.0000      	100.0000    	0.0000      	Open  	;
 P-1497          	J-535           	J-251           	74.4100     	8.0000      	140.0000    	0.0000      	Open  	;
 P-1498          	J-253           	J-856           	47.8300     	6.0000      	100.0000    	0.0000      	Open  	;
 P-1499          	J-79            	J-36            	107.9400    	2.0000      	140.0000    	0.0000      	Open  	;
 P-15            	J-28            	J-29            	591.5700    	18.0000     	100.0000    	0.0000      	Open  	;
 P-150           	J-198           	J-56            	84.0100     	18.0000     	100.0000    	0.0000      	Open  	;
 P-1500          	J-343           	I-AV-271        	437.3800    	6.0000      	100.0000    	0.0000      	Open  	;
 P-1501          	J-365           	I-AV-375        	87.4400     	12.0000     	140.0000    	0.0000      	Open  	;
 P-1502          	J-661           	I-AV-52         	157.7700    	6.0000      	100.0000    	0.0000      	Open  	;
 P-1503          	J-679           	J-508           	209.2500    	8.0000      	140.0000    	0.0000      	Open  	;
 P-1504          	J-1163          	J-1362          	105.9000    	6.0000      	100.0000    	0.0000      	Open  	;
 P-1505          	J-737           	J-797           	521.8590    	8.0000      	140.0000    	0.0000      	Open  	;
 P-1506          	J-785           	J-496           	842.0390    	6.0000      	140.0000    	0.0000      	Open  	;
 P-1507          	J-150           	J-792           	486.7900    	6.0000      	100.0000    	0.0000      	Open  	;
 P-1508          	J-796           	J-236           	51.7400     	6.0000      	100.0000    	0.0000      	Open  	;
 P-1509          	J-889           	J-496           	128.7400    	6.0000      	140.0000    	0.0000      	Open  	;
 P-151           	J-494           	J-60            	254.1900    	6.0000      	100.0000    	0.0000      	Open  	;
 P-1510          	J-927           	I-AV-144        	315.0400    	6.0000      	100.0000    	0.0000      	Open  	;
 P-1511          	J-1012          	J-847           	629.7700    	12.0000     	100.0000    	0.0000      	Open  	;
 P-1512          	J-1052          	J-215           	534.0800    	6.0000      	140.0000    	0.0000      	Open  	;
 P-1513          	J-1081          	J-257           	543.0300    	12.0000     	100.0000    	0.0000      	Open  	;
 P-1514          	J-1092          	J-811           	730.8200    	6.0000      	140.0000    	0.0000      	Open  	;
 P-1515          	J-1120          	J-1434          	219.3990    	6.0000      	100.0000    	0.0000      	Open  	;
 P-1516          	J-1139          	J-765           	32.2990     	12.0000     	100.0000    	0.0000      	Open  	;
 P-1517          	J-1161          	J-1216          	339.9200    	6.0000      	140.0000    	0.0000      	Open  	;
 P-1518          	J-1186          	J-13            	738.9600    	14.0000     	140.0000    	0.0000      	Open  	;
 P-1519          	J-1197          	J-1177          	861.5590    	8.0000      	140.0000    	0.0000      	Open  	;
 P-152           	J-137           	I-AV-3          	104.3390    	6.0000      	100.0000    	0.0000      	Open  	;
 P-1520          	J-1212          	J-939           	1302.4390   	16.0000     	140.0000    	0.0000      	Open  	;
 P-1521          	J-36            	I-AV-78         	187.2400    	2.0000      	140.0000    	0.0000      	Open  	;
 P-1522          	J-1241          	J-1273          	367.0290    	6.0000      	100.0000    	0.0000      	Open  	;
 P-1523          	J-1242          	I-AV-393        	194.4700    	6.0000      	100.0000    	0.0000      	Open  	;
 P-1524          	J-1261          	J-661           	146.6900    	6.0000      	100.0000    	0.0000      	Open  	;
 P-1525          	J-1273          	J-1271          	372.4890    	6.0000      	100.0000    	0.0000      	Open  	;
 P-1526          	O-Pump-1        	I-AV-688        	1759.7900   	18.0000     	100.0000    	0.0000      	Open  	;
 P-1527          	J-113           	J-219           	199.6100    	8.0000      	100.0000    	0.0000      	Open  	;
 P-1528          	J-219           	J-131           	98.0190     	16.0000     	100.0000    	0.0000      	Open  	;
 P-1529          	J-146           	I-AV-662        	327.5290    	12.0000     	140.0000    	0.0000      	Open  	;
 P-153           	J-62            	J-125           	146.5390    	2.0000      	100.0000    	0.0000      	Open  	;
 P-1530          	J-566           	J-103           	165.9900    	12.0000     	100.0000    	0.0000      	Open  	;
 P-1531          	J-566           	J-103           	165.9900    	6.0000      	100.0000    	0.0000      	Open  	;
 P-1532          	J-584           	J-733           	578.6300    	12.0000     	100.0000    	0.0000      	Open  	;
 P-1533          	J-535           	J-584           	308.9500    	8.0000      	140.0000    	0.0000      	Open  	;
 P-1534          	J-1084          	J-1427          	230.7700    	12.0000     	100.0000    	0.0000      	Open  	;
 P-1535          	J-584           	J-642           	85.9700     	8.0000      	140.0000    	0.0000      	Open  	;
 P-1536          	J-693           	J-258           	128.4100    	6.0000      	100.0000    	0.0000      	Open  	;
 P-1537          	J-642           	J-693           	449.2200    	8.0000      	140.0000    	0.0000      	Open  	;
 P-1538          	J-693           	I-AV-260        	411.4500    	8.0000      	140.0000    	0.0000      	Open  	;
 P-1539          	J-259           	J-784           	70.6500     	12.0000     	100.0000    	0.0000      	Open  	;
 P-154           	J-268           	J-624           	532.5490    	14.0000     	100.0000    	0.0000      	Open  	;
 P-1540          	J-784           	J-258           	647.0100    	8.0000      	140.0000    	0.0000      	Open  	;
 P-1541          	J-253           	J-854           	36.3190     	6.0000      	100.0000    	0.0000      	Open  	;
 P-1542          	J-854           	J-258           	645.3090    	6.0000      	100.0000    	0.0000      	Open  	;
 P-1543          	J-234           	J-1435          	185.3390    	6.0000      	140.0000    	0.0000      	Open  	;
 P-1544          	J-934           	J-704           	69.0590     	6.0000      	100.0000    	0.0000      	Open  	;
 P-1545          	J-855           	J-934           	126.6690    	6.0000      	140.0000    	0.0000      	Open  	;
 P-1546          	J-944           	I-AV-313        	87.1200     	12.0000     	100.0000    	0.0000      	Open  	;
 P-1547          	J-934           	I-AV-315        	284.1600    	6.0000      	140.0000    	0.0000      	Open  	;
 P-1548          	J-944           	I-AV-319        	233.1990    	6.0000      	140.0000    	0.0000      	Open  	;
 P-1549          	J-235           	I-AV-310        	228.6900    	6.0000      	140.0000    	0.0000      	Open  	;
 P-155           	J-137           	I-AV-5          	156.7400    	6.0000      	100.0000    	0.0000      	Open  	;
 P-1550          	J-1008          	J-391           	86.8300     	6.0000      	140.0000    	0.0000      	Open  	;
 P-1551          	J-133           	I-AV-330        	114.2790    	6.0000      	100.0000    	0.0000      	Open  	;
 P-1552          	J-1265          	J-492           	111.2300    	12.0000     	100.0000    	0.0000      	Open  	;
 P-1553          	J-1084          	J-1125          	76.6100     	6.0000      	100.0000    	0.0000      	Open  	;
 P-1554          	J-1145          	J-258           	444.0700    	12.0000     	100.0000    	0.0000      	Open  	;
 P-1555          	J-1125          	J-1145          	692.9090    	6.0000      	100.0000    	0.0000      	Open  	;
 P-1556          	J-1145          	J-642           	65.3890     	6.0000      	100.0000    	0.0000      	Open  	;
 P-1557          	J-668           	J-1163          	316.9290    	12.0000     	140.0000    	0.0000      	Open  	;
 P-1558          	J-1202          	J-1361          	102.5690    	6.0000      	100.0000    	0.0000      	Open  	;
 P-1559          	J-1163          	J-1202          	377.6490    	12.0000     	140.0000    	0.0000      	Open  	;
 P-156           	J-58            	J-156           	335.1900    	18.0000     	100.0000    	0.0000      	Open  	;
 P-1560          	J-1202          	J-1271          	352.1790    	12.0000     	140.0000    	0.0000      	Open  	;
 P-1561          	J-1271          	J-738           	203.6600    	6.0000      	100.0000    	0.0000      	Open  	;
 P-1562          	J-1271          	J-720           	515.6190    	12.0000     	140.0000    	0.0000      	Open  	;
 P-1563          	J-121           	I-AV-327        	200.6900    	6.0000      	100.0000    	0.0000      	Open  	;
 P-1564          	J-1265          	J-1125          	95.8490     	6.0000      	100.0000    	0.0000      	Open  	;
 P-1565          	J-556           	I-AV-44         	116.2500    	12.0000     	100.0000    	0.0000      	Open  	;
 P-1566          	J-1297          	J-557           	176.3000    	12.0000     	100.0000    	0.0000      	Open  	;
 P-1567          	J-536           	I-AV-344        	354.8290    	6.0000      	100.0000    	0.0000      	Open  	;
 P-1568          	J-323           	I-AV-345        	108.5800    	6.0000      	100.0000    	0.0000      	Open  	;
 P-1569          	J-1298          	I-AV-383        	135.6190    	6.0000      	140.0000    	0.0000      	Open  	;
 P-157           	J-204           	J-1388          	169.5500    	6.0000      	100.0000    	0.0000      	Open  	;
 P-1570          	J-221           	I-AV-490        	95.8700     	12.0000     	100.0000    	0.0000      	Open  	;
 P-1571          	J-1299          	J-1300          	142.9100    	12.0000     	100.0000    	0.0000      	Open  	;
 P-1572          	J-1299          	J-627           	70.0500     	12.0000     	100.0000    	0.0000      	Open  	;
 P-1573          	J-1043          	J-1300          	346.8800    	8.0000      	100.0000    	0.0000      	Open  	;
 P-1574          	J-1300          	J-1384          	93.9700     	8.0000      	100.0000    	0.0000      	Open  	;
 P-1575          	J-884           	I-AV-720        	316.2090    	6.0000      	100.0000    	0.0000      	Open  	;
 P-1576          	J-1141          	J-883           	330.1000    	6.0000      	100.0000    	0.0000      	Open  	;
 P-1577          	J-501           	J-1301          	583.2700    	6.0000      	140.0000    	0.0000      	Open  	;
 P-1578          	J-1301          	I-AV-689        	214.8390    	6.0000      	140.0000    	0.0000      	Open  	;
 P-1579          	J-529           	J-541           	94.8190     	12.0000     	100.0000    	0.0000      	Open  	;
 P-158           	J-71            	J-206           	420.9700    	6.0000      	100.0000    	0.0000      	Open  	;
 P-1580          	J-1141          	I-AV-6          	774.7000    	12.0000     	100.0000    	0.0000      	Open  	;
 P-1581          	J-1303          	J-915           	322.0790    	6.0000      	100.0000    	0.0000      	Open  	;
 P-1582          	J-1302          	I-AV-32         	193.8200    	6.0000      	100.0000    	0.0000      	Open  	;
 P-1583          	J-1303          	J-517           	85.9400     	6.0000      	100.0000    	0.0000      	Open  	;
 P-1584          	J-1304          	I-AV-279        	102.4800    	12.0000     	140.0000    	0.0000      	Open  	;
 P-1585          	J-150           	J-1304          	451.3090    	6.0000      	100.0000    	0.0000      	Open  	;
 P-1586          	J-1304          	J-612           	109.5400    	6.0000      	100.0000    	0.0000      	Open  	;
 P-1587          	J-1304          	I-AV-312        	167.1790    	12.0000     	140.0000    	0.0000      	Open  	;
 P-1588          	J-1307          	J-555           	217.0800    	6.0000      	140.0000    	0.0000      	Open  	;
 P-1589          	J-1307          	J-1309          	95.2300     	12.0000     	140.0000    	0.0000      	Open  	;
 P-159           	J-42            	J-207           	182.2700    	3.0000      	100.0000    	0.0000      	Open  	;
 P-1590          	J-613           	J-1305          	97.5590     	12.0000     	100.0000    	0.0000      	Open  	;
 P-1591          	J-1309          	J-1307          	323.4500    	6.0000      	140.0000    	0.0000      	Open  	;
 P-1592          	J-1305          	I-AV-425        	182.5200    	12.0000     	100.0000    	0.0000      	Open  	;
 P-1593          	J-615           	J-1306          	91.5690     	6.0000      	140.0000    	0.0000      	Open  	;
 P-1594          	J-1306          	I-AV-418        	359.7690    	6.0000      	140.0000    	0.0000      	Open  	;
 P-1595          	J-358           	J-1308          	80.2500     	6.0000      	100.0000    	0.0000      	Open  	;
 P-1596          	J-1308          	I-AV-415        	193.0290    	6.0000      	100.0000    	0.0000      	Open  	;
 P-1597          	J-1311          	I-AV-450        	216.0500    	6.0000      	100.0000    	0.0000      	Open  	;
 P-1598          	J-1207          	J-1311          	253.4290    	12.0000     	140.0000    	0.0000      	Open  	;
 P-1599          	J-1311          	J-1310          	213.9400    	12.0000     	140.0000    	0.0000      	Open  	;
 P-16            	J-30            	J-1415          	267.6000    	6.0000      	100.0000    	0.0000      	Open  	;
 P-160           	J-155           	J-208           	244.4600    	6.0000      	100.0000    	0.0000      	Open  	;
 P-1600          	J-225           	J-1407          	298.1790    	6.0000      	100.0000    	0.0000      	Open  	;
 P-1601          	J-1312          	I-AV-283        	131.0700    	6.0000      	100.0000    	0.0000      	Open  	;
 P-1602          	J-1313          	I-AV-296        	377.2690    	6.0000      	100.0000    	0.0000      	Open  	;
 P-1603          	J-86            	J-1313          	501.3900    	6.0000      	100.0000    	0.0000      	Open  	;
 P-1604          	J-1212          	J-836           	613.2190    	18.0000     	140.0000    	0.0000      	Open  	;
 P-1605          	J-121           	I-AV-349        	201.8690    	6.0000      	100.0000    	0.0000      	Open  	;
 P-1606          	J-1314          	J-1356          	183.4190    	6.0000      	100.0000    	0.0000      	Open  	;
 P-1607          	J-33            	J-1315          	169.5000    	12.0000     	100.0000    	0.0000      	Open  	;
 P-1608          	J-1315          	I-AV-370        	438.2690    	12.0000     	100.0000    	0.0000      	Open  	;
 P-1609          	J-287           	I-AV-307        	99.6600     	12.0000     	100.0000    	0.0000      	Open  	;
 P-161           	J-155           	I-AV-298        	285.8900    	6.0000      	140.0000    	0.0000      	Open  	;
 P-1610          	J-1316          	J-286           	380.0890    	12.0000     	100.0000    	0.0000      	Open  	;
 P-1611          	J-356           	J-1317          	301.4100    	8.0000      	140.0000    	0.0000      	Open  	;
 P-1612          	J-1317          	J-578           	204.3500    	8.0000      	140.0000    	0.0000      	Open  	;
 P-1613          	J-356           	J-1318          	943.4600    	8.0000      	100.0000    	0.0000      	Open  	;
 P-1614          	J-1319          	J-1318          	201.4490    	18.0000     	140.0000    	0.0000      	Open  	;
 P-1615          	J-1318          	J-1319          	201.4490    	8.0000      	100.0000    	0.0000      	Open  	;
 P-1616          	J-1319          	J-1210          	521.8590    	8.0000      	100.0000    	0.0000      	Open  	;
 P-1617          	O-AV-3          	J-73            	122.1900    	6.0000      	100.0000    	0.0000      	Open  	;
 P-1618          	J-137           	J-136           	230.6600    	6.0000      	100.0000    	0.0000      	Open  	;
 P-1619          	O-AV-5          	J-203           	270.5790    	6.0000      	100.0000    	0.0000      	Open  	;
 P-162           	J-151           	J-210           	356.8090    	6.0000      	100.0000    	0.0000      	Open  	;
 P-1620          	O-AV-6          	J-136           	172.8600    	12.0000     	100.0000    	0.0000      	Open  	;
 P-1621          	O-AV-7          	J-136           	106.7390    	6.0000      	100.0000    	0.0000      	Open  	;
 P-1622          	O-AV-8          	J-143           	673.4000    	12.0000     	100.0000    	0.0000      	Open  	;
 P-1624          	J-1401          	J-148           	277.2300    	6.0000      	100.0000    	0.0000      	Open  	;
 P-1625          	J-1402          	J-1047          	133.1100    	6.0000      	100.0000    	0.0000      	Open  	;
 P-1626          	O-AV-12         	J-1128          	278.3690    	12.0000     	100.0000    	0.0000      	Open  	;
 P-1628          	J-1380          	J-1047          	236.2400    	6.0000      	100.0000    	0.0000      	Open  	;
 P-1629          	J-1339          	J-319           	682.9400    	12.0000     	100.0000    	0.0000      	Open  	;
 P-163           	J-513           	J-53            	173.4100    	18.0000     	100.0000    	0.0000      	Open  	;
 P-1630          	O-AV-16         	J-218           	151.7700    	12.0000     	100.0000    	0.0000      	Open  	;
 P-1631          	J-218           	O-AV-18         	317.7900    	6.0000      	100.0000    	0.0000      	Open  	;
 P-1632          	J-1340          	J-1299          	340.0890    	12.0000     	100.0000    	0.0000      	Open  	;
 P-1633          	J-585           	O-AV-22         	222.6390    	6.0000      	100.0000    	0.0000      	Open  	;
 P-1634          	J-585           	O-AV-739        	242.7590    	6.0000      	100.0000    	0.0000      	Open  	;
 P-1635          	J-1341          	J-1368          	93.9700     	4.0000      	100.0000    	0.0000      	Open  	;
 P-1636          	J-1342          	I-AV-308        	80.8090     	6.0000      	100.0000    	0.0000      	Open  	;
 P-1637          	J-1383          	J-415           	103.5800    	6.0000      	100.0000    	0.0000      	Open  	;
 P-1638          	J-1414          	J-977           	202.9700    	6.0000      	150.0000    	0.0000      	Open  	;
 P-1639          	O-AV-25         	J-414           	188.6000    	6.0000      	100.0000    	0.0000      	Open  	;
 P-164           	J-138           	J-212           	511.9800    	8.0000      	150.0000    	0.0000      	Open  	;
 P-1640          	O-AV-26         	J-10            	229.7890    	12.0000     	100.0000    	0.0000      	Open  	;
 P-1641          	O-AV-27         	J-414           	150.9790    	6.0000      	100.0000    	0.0000      	Open  	;
 P-1642          	O-AV-28         	J-206           	123.4190    	6.0000      	100.0000    	0.0000      	Open  	;
 P-1643          	J-10            	J-414           	237.0800    	6.0000      	100.0000    	0.0000      	Open  	;
 P-1644          	J-1302          	J-143           	227.6990    	6.0000      	140.0000    	0.0000      	Open  	;
 P-1645          	O-AV-31         	J-1302          	225.1600    	6.0000      	100.0000    	0.0000      	Open  	;
 P-1646          	O-AV-32         	J-151           	263.0700    	6.0000      	100.0000    	0.0000      	Open  	;
 P-1647          	J-929           	J-1324          	397.6900    	6.0000      	140.0000    	0.0000      	Open  	;
 P-1649          	J-786           	J-429           	451.0590    	6.0000      	140.0000    	0.0000      	Open  	;
 P-165           	J-430           	J-166           	234.4490    	16.0000     	100.0000    	0.0000      	Open  	;
 P-1650          	O-AV-36         	J-1324          	464.9800    	6.0000      	140.0000    	0.0000      	Open  	;
 P-1651          	O-AV-37         	J-885           	92.7300     	12.0000     	100.0000    	0.0000      	Open  	;
 P-1652          	I-AV-31         	J-536           	283.9400    	6.0000      	100.0000    	0.0000      	Open  	;
 P-1653          	O-AV-39         	J-966           	135.3600    	12.0000     	100.0000    	0.0000      	Open  	;
 P-1654          	O-AV-40         	J-648           	199.8300    	12.0000     	100.0000    	0.0000      	Open  	;
 P-1655          	O-AV-41         	J-701           	359.7990    	6.0000      	100.0000    	0.0000      	Open  	;
 P-1656          	J-1343          	J-343           	461.0290    	6.0000      	100.0000    	0.0000      	Open  	;
 P-1657          	O-AV-43         	J-789           	130.1600    	6.0000      	100.0000    	0.0000      	Open  	;
 P-1658          	O-AV-44         	J-1297          	144.3000    	12.0000     	100.0000    	0.0000      	Open  	;
 P-1659          	I-AV-47         	J-660           	835.8690    	6.0000      	100.0000    	0.0000      	Open  	;
 P-166           	J-37            	I-AV-222        	225.9490    	6.0000      	100.0000    	0.0000      	Open  	;
 P-1660          	O-AV-46         	J-1222          	285.4100    	8.0000      	140.0000    	0.0000      	Open  	;
 P-1661          	O-AV-47         	J-661           	279.2300    	6.0000      	100.0000    	0.0000      	Open  	;
 P-1663          	O-AV-49         	J-641           	121.5690    	6.0000      	100.0000    	0.0000      	Open  	;
 P-1664          	O-AV-50         	J-744           	253.5290    	6.0000      	100.0000    	0.0000      	Open  	;
 P-1665          	O-AV-51         	J-998           	149.9490    	6.0000      	100.0000    	0.0000      	Open  	;
 P-1666          	O-AV-52         	J-266           	169.0390    	6.0000      	100.0000    	0.0000      	Open  	;
 P-1667          	J-1426          	J-1365          	174.5700    	6.0000      	100.0000    	0.0000      	Open  	;
 P-1668          	J-1365          	J-306           	108.1290    	6.0000      	100.0000    	0.0000      	Open  	;
 P-1669          	O-AV-55         	J-652           	102.8790    	6.0000      	100.0000    	0.0000      	Open  	;
 P-167           	J-107           	I-AV-226        	458.8500    	6.0000      	100.0000    	0.0000      	Open  	;
 P-1670          	O-AV-56         	J-880           	216.0890    	6.0000      	100.0000    	0.0000      	Open  	;
 P-1671          	O-AV-57         	J-1109          	113.5690    	6.0000      	100.0000    	0.0000      	Open  	;
 P-1672          	O-AV-58         	J-1108          	328.3690    	6.0000      	100.0000    	0.0000      	Open  	;
 P-1673          	J-1344          	J-986           	356.4700    	6.0000      	100.0000    	0.0000      	Open  	;
 P-1674          	O-AV-60         	J-563           	350.3990    	6.0000      	100.0000    	0.0000      	Open  	;
 P-1675          	O-AV-61         	J-563           	137.3300    	6.0000      	100.0000    	0.0000      	Open  	;
 P-1676          	O-AV-62         	J-363           	151.1600    	6.0000      	140.0000    	0.0000      	Open  	;
 P-1677          	J-547           	J-363           	362.7090    	6.0000      	140.0000    	0.0000      	Open  	;
 P-1678          	O-AV-64         	J-548           	324.2500    	6.0000      	100.0000    	0.0000      	Open  	;
 P-1679          	J-1378          	J-605           	145.3990    	6.0000      	140.0000    	0.0000      	Open  	;
 P-168           	J-17            	J-28            	141.8200    	18.0000     	100.0000    	0.0000      	Open  	;
 P-1680          	O-AV-66         	J-1065          	412.4590    	12.0000     	140.0000    	0.0000      	Open  	;
 P-1681          	O-AV-67         	J-1065          	206.1690    	8.0000      	100.0000    	0.0000      	Open  	;
 P-1682          	J-1411          	J-750           	144.9900    	6.0000      	100.0000    	0.0000      	Open  	;
 P-1683          	J-1375          	J-605           	139.0700    	6.0000      	140.0000    	0.0000      	Open  	;
 P-1684          	J-1376          	J-562           	331.8990    	2.0000      	140.0000    	0.0000      	Open  	;
 P-1685          	J-1375          	J-604           	575.8900    	6.0000      	140.0000    	0.0000      	Open  	;
 P-1686          	J-1377          	J-1180          	174.6000    	6.0000      	140.0000    	0.0000      	Open  	;
 P-1687          	O-AV-73         	J-195           	96.6900     	6.0000      	140.0000    	0.0000      	Open  	;
 P-1688          	O-AV-74         	J-168           	103.5690    	6.0000      	140.0000    	0.0000      	Open  	;
 P-169           	J-76            	I-AV-482        	288.3800    	8.0000      	100.0000    	0.0000      	Open  	;
 P-1692          	O-AV-78         	J-78            	559.0300    	2.0000      	140.0000    	0.0000      	Open  	;
 P-1693          	J-1412          	J-1209          	207.1100    	6.0000      	100.0000    	0.0000      	Open  	;
 P-1694          	O-AV-80         	J-79            	142.0800    	6.0000      	100.0000    	0.0000      	Open  	;
 P-1695          	I-AV-80         	J-80            	371.0400    	6.0000      	100.0000    	0.0000      	Open  	;
 P-1696          	O-AV-82         	J-167           	437.9800    	12.0000     	100.0000    	0.0000      	Open  	;
 P-1697          	J-1418          	J-1035          	180.0500    	8.0000      	100.0000    	0.0000      	Open  	;
 P-1698          	O-AV-84         	J-1418          	838.1590    	8.0000      	100.0000    	0.0000      	Open  	;
 P-1699          	O-AV-85         	J-164           	588.9190    	6.0000      	100.0000    	0.0000      	Open  	;
 P-17            	J-32            	J-33            	180.4290    	12.0000     	100.0000    	0.0000      	Open  	;
 P-170           	J-87            	I-AV-481        	190.7100    	8.0000      	100.0000    	0.0000      	Open  	;
 P-1700          	O-AV-86         	J-248           	641.4190    	12.0000     	100.0000    	0.0000      	Open  	;
 P-1701          	J-947           	J-1020          	190.1390    	6.0000      	100.0000    	0.0000      	Open  	;
 P-1703          	O-AV-89         	J-200           	116.0290    	6.0000      	100.0000    	0.0000      	Open  	;
 P-1704          	J-1413          	J-1228          	238.5390    	6.0000      	100.0000    	0.0000      	Open  	;
 P-1705          	O-AV-91         	J-465           	129.9190    	6.0000      	100.0000    	0.0000      	Open  	;
 P-1706          	J-1433          	J-444           	153.5290    	6.0000      	100.0000    	0.0000      	Open  	;
 P-1707          	O-AV-93         	J-807           	68.0500     	6.0000      	100.0000    	0.0000      	Open  	;
 P-1708          	O-AV-94         	J-463           	231.3200    	6.0000      	100.0000    	0.0000      	Open  	;
 P-1709          	J-289           	O-AV-166        	841.9290    	6.0000      	100.0000    	0.0000      	Open  	;
 P-171           	J-215           	J-87            	367.8690    	12.0000     	100.0000    	0.0000      	Open  	;
 P-1710          	J-1345          	I-AV-475        	166.4700    	2.0000      	100.0000    	0.0000      	Open  	;
 P-1712          	J-318           	O-AV-99         	243.0890    	6.0000      	100.0000    	0.0000      	Open  	;
 P-1713          	J-1346          	I-AV-488        	246.9190    	10.0000     	100.0000    	0.0000      	Open  	;
 P-1714          	O-AV-100        	J-280           	245.9600    	6.0000      	100.0000    	0.0000      	Open  	;
 P-1715          	O-AV-101        	J-1209          	140.4600    	6.0000      	100.0000    	0.0000      	Open  	;
 P-1716          	J-1347          	J-56            	340.9500    	6.0000      	140.0000    	0.0000      	Open  	;
 P-1717          	J-1417          	J-531           	235.3090    	6.0000      	100.0000    	0.0000      	Open  	;
 P-1718          	J-1416          	J-531           	539.6690    	6.0000      	100.0000    	0.0000      	Open  	;
 P-1719          	O-AV-105        	J-690           	211.7500    	6.0000      	100.0000    	0.0000      	Open  	;
 P-172           	J-384           	J-219           	503.7200    	16.0000     	100.0000    	0.0000      	Open  	;
 P-1720          	O-AV-106        	J-690           	80.8300     	6.0000      	100.0000    	0.0000      	Open  	;
 P-1721          	O-AV-107        	J-807           	521.1190    	6.0000      	100.0000    	0.0000      	Open  	;
 P-1722          	O-AV-108        	J-770           	116.9300    	6.0000      	100.0000    	0.0000      	Open  	;
 P-1723          	O-AV-109        	J-453           	294.5890    	6.0000      	100.0000    	0.0000      	Open  	;
 P-1724          	O-AV-110        	J-294           	142.8600    	6.0000      	100.0000    	0.0000      	Open  	;
 P-1725          	O-AV-111        	J-917           	165.2890    	6.0000      	100.0000    	0.0000      	Open  	;
 P-1726          	O-AV-112        	J-583           	305.1790    	2.0000      	100.0000    	0.0000      	Open  	;
 P-1727          	O-AV-113        	J-939           	189.5890    	6.0000      	140.0000    	0.0000      	Open  	;
 P-1728          	I-AV-114        	J-576           	120.1900    	12.0000     	100.0000    	0.0000      	Open  	;
 P-1729          	O-AV-115        	J-397           	224.9900    	8.0000      	100.0000    	0.0000      	Open  	;
 P-173           	J-9             	J-217           	366.5490    	6.0000      	100.0000    	0.0000      	Open  	;
 P-1730          	J-1348          	I-AV-489        	122.6990    	6.0000      	100.0000    	0.0000      	Open  	;
 P-1731          	J-890           	J-357           	342.4590    	8.0000      	100.0000    	0.0000      	Open  	;
 P-1732          	J-699           	J-698           	507.3990    	6.0000      	100.0000    	0.0000      	Open  	;
 P-1733          	J-1321          	J-698           	216.4600    	6.0000      	100.0000    	0.0000      	Open  	;
 P-1734          	J-1322          	I-AV-123        	231.6190    	6.0000      	100.0000    	0.0000      	Open  	;
 P-1735          	J-1320          	J-1321          	187.3500    	6.0000      	100.0000    	0.0000      	Open  	;
 P-1736          	O-AV-122        	J-1320          	505.1490    	6.0000      	100.0000    	0.0000      	Open  	;
 P-1737          	O-AV-123        	J-1137          	229.7890    	6.0000      	100.0000    	0.0000      	Open  	;
 P-1738          	J-1446          	J-937           	252.3500    	6.0000      	140.0000    	0.0000      	Open  	;
 P-1739          	O-AV-125        	J-1211          	1252.0500   	6.0000      	100.0000    	0.0000      	Open  	;
 P-174           	J-218           	J-9             	356.6600    	12.0000     	100.0000    	0.0000      	Open  	;
 P-1740          	O-AV-126        	J-1210          	363.5000    	6.0000      	100.0000    	0.0000      	Open  	;
 P-1741          	O-AV-127        	J-863           	250.9400    	18.0000     	140.0000    	0.0000      	Open  	;
 P-1742          	O-AV-128        	J-721           	594.5900    	12.0000     	140.0000    	0.0000      	Open  	;
 P-1743          	O-AV-129        	J-559           	169.3090    	8.0000      	140.0000    	0.0000      	Open  	;
 P-1744          	O-AV-130        	J-559           	352.3590    	12.0000     	140.0000    	0.0000      	Open  	;
 P-1745          	O-AV-131        	J-576           	197.2590    	6.0000      	100.0000    	0.0000      	Open  	;
 P-1748          	O-AV-134        	J-1132          	300.7300    	12.0000     	140.0000    	0.0000      	Open  	;
 P-1749          	O-AV-135        	J-970           	408.1300    	16.0000     	140.0000    	0.0000      	Open  	;
 P-175           	J-139           	J-126           	175.7290    	8.0000      	150.0000    	0.0000      	Open  	;
 P-1750          	O-AV-136        	J-560           	1146.0400   	12.0000     	140.0000    	0.0000      	Open  	;
 P-1751          	O-AV-137        	J-599           	759.2290    	12.0000     	140.0000    	0.0000      	Open  	;
 P-1752          	O-AV-138        	J-528           	218.5500    	12.0000     	140.0000    	0.0000      	Open  	;
 P-1753          	O-AV-139        	J-527           	205.2100    	12.0000     	140.0000    	0.0000      	Open  	;
 P-1755          	J-600           	J-560           	796.5000    	12.0000     	140.0000    	0.0000      	Open  	;
 P-1756          	O-AV-142        	J-847           	129.3500    	8.0000      	140.0000    	0.0000      	Open  	;
 P-1757          	O-AV-143        	J-371           	435.4290    	12.0000     	100.0000    	0.0000      	Open  	;
 P-1758          	O-AV-144        	J-832           	218.1390    	6.0000      	100.0000    	0.0000      	Open  	;
 P-1759          	O-AV-145        	J-276           	316.2500    	6.0000      	100.0000    	0.0000      	Open  	;
 P-176           	J-153           	J-75            	416.2390    	8.0000      	100.0000    	0.0000      	Open  	;
 P-1760          	O-AV-146        	J-664           	129.3890    	6.0000      	140.0000    	0.0000      	Open  	;
 P-1761          	O-AV-147        	J-621           	754.4600    	8.0000      	100.0000    	0.0000      	Open  	;
 P-1763          	O-AV-149        	J-1056          	269.8690    	8.0000      	100.0000    	0.0000      	Open  	;
 P-1764          	O-AV-150        	J-1057          	384.6090    	8.0000      	100.0000    	0.0000      	Open  	;
 P-1765          	J-1374          	J-1325          	143.9290    	6.0000      	100.0000    	0.0000      	Open  	;
 P-1766          	O-AV-152        	J-645           	127.6990    	6.0000      	140.0000    	0.0000      	Open  	;
 P-1767          	O-AV-153        	J-390           	81.0690     	6.0000      	140.0000    	0.0000      	Open  	;
 P-1768          	J-1374          	J-748           	186.5700    	6.0000      	100.0000    	0.0000      	Open  	;
 P-1769          	O-AV-155        	J-659           	165.3300    	6.0000      	140.0000    	0.0000      	Open  	;
 P-177           	J-39            	J-34            	646.4190    	6.0000      	150.0000    	0.0000      	Open  	;
 P-1770          	O-AV-156        	J-1198          	130.3800    	6.0000      	140.0000    	0.0000      	Open  	;
 P-1772          	O-AV-158        	J-1147          	175.6490    	6.0000      	100.0000    	0.0000      	Open  	;
 P-1773          	J-1399          	J-1025          	113.7200    	6.0000      	100.0000    	0.0000      	Open  	;
 P-1774          	O-AV-160        	J-878           	113.6990    	6.0000      	100.0000    	0.0000      	Open  	;
 P-1775          	J-442           	O-AV-165        	369.9590    	6.0000      	100.0000    	0.0000      	Open  	;
 P-1776          	O-AV-162        	J-1276          	196.4290    	6.0000      	100.0000    	0.0000      	Open  	;
 P-1777          	O-AV-163        	I-AV-149        	1694.6300   	8.0000      	100.0000    	0.0000      	Open  	;
 P-1778          	J-1349          	I-AV-577        	97.6600     	8.0000      	100.0000    	0.0000      	Open  	;
 P-1779          	J-1350          	J-550           	586.6690    	6.0000      	100.0000    	0.0000      	Open  	;
 P-178           	J-138           	J-113           	401.1000    	8.0000      	150.0000    	0.0000      	Open  	;
 P-1780          	J-1351          	I-AV-677        	846.3400    	12.0000     	100.0000    	0.0000      	Open  	;
 P-1782          	O-AV-168        	J-663           	172.9900    	6.0000      	140.0000    	0.0000      	Open  	;
 P-1783          	O-AV-169        	J-23            	121.8700    	12.0000     	140.0000    	0.0000      	Open  	;
 P-1784          	O-AV-170        	J-22            	315.9890    	6.0000      	100.0000    	0.0000      	Open  	;
 P-1785          	O-AV-171        	J-55            	700.1400    	6.0000      	100.0000    	0.0000      	Open  	;
 P-1786          	J-1352          	J-1351          	1161.7900   	12.0000     	100.0000    	0.0000      	Open  	;
 P-1787          	O-AV-173        	J-167           	1120.6400   	8.0000      	100.0000    	0.0000      	Open  	;
 P-1788          	O-AV-174        	J-695           	176.3500    	6.0000      	100.0000    	0.0000      	Open  	;
 P-1789          	O-AV-175        	J-1022          	191.2400    	6.0000      	100.0000    	0.0000      	Open  	;
 P-179           	R-1             	I-Pump-1        	1308.6400   	18.0000     	100.0000    	0.0000      	Open  	;
 P-1790          	J-1379          	J-6             	529.3490    	12.0000     	140.0000    	0.0000      	Open  	;
 P-1791          	O-AV-177        	J-835           	285.4100    	6.0000      	100.0000    	0.0000      	Open  	;
 P-1792          	O-AV-178        	J-5             	134.0390    	12.0000     	140.0000    	0.0000      	Open  	;
 P-1793          	O-AV-179        	J-350           	217.9600    	6.0000      	140.0000    	0.0000      	Open  	;
 P-1794          	O-AV-180        	J-694           	107.0500    	6.0000      	100.0000    	0.0000      	Open  	;
 P-1795          	O-AV-181        	J-1201          	159.4790    	12.0000     	140.0000    	0.0000      	Open  	;
 P-1796          	J-1448          	J-330           	141.9490    	2.0000      	100.0000    	0.0000      	Open  	;
 P-1797          	O-AV-183        	J-329           	116.9890    	2.0000      	100.0000    	0.0000      	Open  	;
 P-1798          	J-1419          	J-427           	251.8000    	2.0000      	100.0000    	0.0000      	Open  	;
 P-1799          	O-AV-185        	J-1001          	129.2400    	2.0000      	100.0000    	0.0000      	Open  	;
 P-18            	J-34            	J-35            	140.3390    	6.0000      	150.0000    	0.0000      	Open  	;
 P-180           	J-220           	I-AV-523        	258.2200    	6.0000      	100.0000    	0.0000      	Open  	;
 P-1800          	O-AV-186        	J-313           	271.2900    	6.0000      	100.0000    	0.0000      	Open  	;
 P-1801          	J-1400          	J-19            	317.1300    	2.0000      	100.0000    	0.0000      	Open  	;
 P-1802          	J-181           	O-AV-189        	505.8800    	2.0000      	100.0000    	0.0000      	Open  	;
 P-1804          	O-AV-190        	J-575           	292.7900    	6.0000      	100.0000    	0.0000      	Open  	;
 P-1805          	O-AV-191        	J-952           	256.2390    	6.0000      	100.0000    	0.0000      	Open  	;
 P-1806          	J-1444          	J-180           	241.0000    	6.0000      	100.0000    	0.0000      	Open  	;
 P-1807          	J-1354          	I-AV-262        	184.3300    	6.0000      	100.0000    	0.0000      	Open  	;
 P-1808          	O-AV-194        	J-949           	708.0800    	12.0000     	100.0000    	0.0000      	Open  	;
 P-1809          	O-AV-195        	J-919           	335.8500    	12.0000     	100.0000    	0.0000      	Open  	;
 P-181           	J-222           	J-223           	1611.7090   	6.0000      	140.0000    	0.0000      	Open  	;
 P-1810          	O-AV-196        	J-1078          	1511.1190   	6.0000      	140.0000    	0.0000      	Open  	;
 P-1811          	J-1405          	J-349           	150.1990    	6.0000      	100.0000    	0.0000      	Open  	;
 P-1812          	O-AV-198        	J-819           	145.6600    	6.0000      	100.0000    	0.0000      	Open  	;
 P-1813          	O-AV-199        	J-485           	138.6600    	12.0000     	100.0000    	0.0000      	Open  	;
 P-1814          	O-AV-200        	J-486           	39.1890     	6.0000      	100.0000    	0.0000      	Open  	;
 P-1815          	O-AV-201        	J-569           	185.8990    	6.0000      	100.0000    	0.0000      	Open  	;
 P-1816          	J-1432          	J-840           	125.6600    	6.0000      	100.0000    	0.0000      	Open  	;
 P-1817          	O-AV-203        	J-815           	658.9290    	6.0000      	100.0000    	0.0000      	Open  	;
 P-1818          	O-AV-204        	J-486           	282.0590    	12.0000     	100.0000    	0.0000      	Open  	;
 P-1819          	O-AV-205        	I-AV-208        	508.5490    	6.0000      	100.0000    	0.0000      	Open  	;
 P-182           	J-1312          	I-AV-281        	262.6900    	6.0000      	140.0000    	0.0000      	Open  	;
 P-1820          	O-AV-206        	J-498           	159.3990    	6.0000      	100.0000    	0.0000      	Open  	;
 P-1821          	J-1355          	J-488           	387.6300    	12.0000     	100.0000    	0.0000      	Open  	;
 P-1822          	O-AV-208        	J-1253          	393.2690    	6.0000      	100.0000    	0.0000      	Open  	;
 P-1823          	O-AV-209        	J-109           	383.3800    	6.0000      	100.0000    	0.0000      	Open  	;
 P-1825          	O-AV-211        	J-960           	117.6200    	6.0000      	100.0000    	0.0000      	Open  	;
 P-1826          	O-AV-212        	J-553           	180.3890    	6.0000      	100.0000    	0.0000      	Open  	;
 P-1828          	J-958           	J-957           	276.4290    	6.0000      	100.0000    	0.0000      	Open  	;
 P-1829          	O-AV-215        	J-40            	134.6600    	6.0000      	100.0000    	0.0000      	Open  	;
 P-183           	J-226           	J-227           	298.9590    	6.0000      	140.0000    	0.0000      	Open  	;
 P-1830          	O-AV-216        	J-40            	664.5590    	6.0000      	100.0000    	0.0000      	Open  	;
 P-1831          	O-AV-217        	J-105           	228.2790    	6.0000      	150.0000    	0.0000      	Open  	;
 P-1832          	O-AV-218        	J-37            	221.3090    	6.0000      	100.0000    	0.0000      	Open  	;
 P-1833          	O-AV-219        	J-149           	688.8090    	6.0000      	100.0000    	0.0000      	Open  	;
 P-1836          	O-AV-222        	J-108           	231.7500    	6.0000      	100.0000    	0.0000      	Open  	;
 P-1837          	O-AV-223        	J-739           	433.2090    	6.0000      	100.0000    	0.0000      	Open  	;
 P-1838          	O-AV-224        	J-575           	969.9690    	6.0000      	100.0000    	0.0000      	Open  	;
 P-1839          	O-AV-225        	J-176           	209.6790    	6.0000      	100.0000    	0.0000      	Open  	;
 P-184           	J-228           	I-AV-531        	528.5100    	8.0000      	140.0000    	0.0000      	Open  	;
 P-1840          	O-AV-226        	J-214           	264.9590    	6.0000      	100.0000    	0.0000      	Open  	;
 P-1841          	J-1367          	I-AV-228        	708.1500    	6.0000      	100.0000    	0.0000      	Open  	;
 P-1842          	O-AV-228        	J-107           	432.1090    	6.0000      	100.0000    	0.0000      	Open  	;
 P-1843          	O-AV-229        	J-1289          	343.6400    	6.0000      	100.0000    	0.0000      	Open  	;
 P-1844          	J-1404          	J-821           	109.9400    	6.0000      	100.0000    	0.0000      	Open  	;
 P-1845          	O-AV-231        	J-484           	149.5500    	6.0000      	100.0000    	0.0000      	Open  	;
 P-1846          	I-AV-64         	J-547           	348.2690    	6.0000      	100.0000    	0.0000      	Open  	;
 P-1847          	O-AV-233        	J-362           	92.1500     	6.0000      	100.0000    	0.0000      	Open  	;
 P-1848          	O-AV-234        	J-1033          	223.5000    	4.0000      	100.0000    	0.0000      	Open  	;
 P-1849          	O-AV-235        	J-611           	133.1390    	6.0000      	100.0000    	0.0000      	Open  	;
 P-185           	J-230           	J-231           	292.5400    	8.0000      	140.0000    	0.0000      	Open  	;
 P-1850          	O-AV-236        	J-989           	204.8800    	2.0000      	100.0000    	0.0000      	Open  	;
 P-1851          	O-AV-237        	J-988           	271.7390    	6.0000      	100.0000    	0.0000      	Open  	;
 P-1852          	O-AV-238        	J-618           	354.7990    	6.0000      	100.0000    	0.0000      	Open  	;
 P-1853          	O-AV-239        	J-120           	271.0100    	6.0000      	100.0000    	0.0000      	Open  	;
 P-1854          	J-1366          	J-618           	259.8990    	6.0000      	100.0000    	0.0000      	Open  	;
 P-1855          	O-AV-241        	J-1366          	257.0890    	6.0000      	100.0000    	0.0000      	Open  	;
 P-1856          	J-89            	J-88            	512.5800    	3.0000      	100.0000    	0.0000      	Open  	;
 P-1857          	O-AV-243        	J-277           	643.9290    	6.0000      	100.0000    	0.0000      	Open  	;
 P-1858          	O-AV-244        	J-88            	264.8500    	6.0000      	100.0000    	0.0000      	Open  	;
 P-1859          	O-AV-245        	J-160           	210.6300    	6.0000      	100.0000    	0.0000      	Open  	;
 P-186           	J-232           	J-233           	317.7200    	8.0000      	140.0000    	0.0000      	Open  	;
 P-1860          	O-AV-246        	J-516           	159.3990    	14.0000     	100.0000    	0.0000      	Open  	;
 P-1861          	J-736           	J-735           	390.9800    	6.0000      	100.0000    	0.0000      	Open  	;
 P-1863          	I-AV-250        	J-11            	438.0290    	6.0000      	100.0000    	0.0000      	Open  	;
 P-1864          	O-AV-250        	J-12            	196.5500    	6.0000      	100.0000    	0.0000      	Open  	;
 P-1865          	J-1443          	J-153           	157.7200    	6.0000      	100.0000    	0.0000      	Open  	;
 P-1866          	O-AV-252        	J-153           	124.4100    	2.0000      	100.0000    	0.0000      	Open  	;
 P-1867          	O-AV-253        	J-703           	152.3300    	8.0000      	100.0000    	0.0000      	Open  	;
 P-1868          	O-AV-254        	J-12            	229.1100    	6.0000      	100.0000    	0.0000      	Open  	;
 P-1869          	O-AV-255        	J-941           	138.4400    	6.0000      	100.0000    	0.0000      	Open  	;
 P-187           	J-234           	I-AV-286        	220.0090    	12.0000     	140.0000    	0.0000      	Open  	;
 P-1870          	O-AV-256        	J-653           	456.9890    	6.0000      	100.0000    	0.0000      	Open  	;
 P-1871          	O-AV-257        	J-612           	150.8500    	6.0000      	100.0000    	0.0000      	Open  	;
 P-1872          	O-AV-258        	J-653           	185.5800    	6.0000      	100.0000    	0.0000      	Open  	;
 P-1873          	O-AV-259        	J-652           	452.1900    	6.0000      	100.0000    	0.0000      	Open  	;
 P-1874          	O-AV-260        	J-322           	155.7890    	8.0000      	140.0000    	0.0000      	Open  	;
 P-1875          	O-AV-261        	J-322           	193.8200    	8.0000      	100.0000    	0.0000      	Open  	;
 P-1876          	O-AV-262        	J-849           	94.9300     	6.0000      	100.0000    	0.0000      	Open  	;
 P-1877          	O-AV-263        	J-241           	172.4190    	6.0000      	140.0000    	0.0000      	Open  	;
 P-1878          	J-1354          	J-848           	402.1490    	6.0000      	100.0000    	0.0000      	Open  	;
 P-1879          	O-AV-265        	J-848           	283.4290    	6.0000      	100.0000    	0.0000      	Open  	;
 P-188           	J-236           	I-AV-273        	342.5400    	4.0000      	100.0000    	0.0000      	Open  	;
 P-1880          	O-AV-266        	J-1341          	242.3800    	4.0000      	100.0000    	0.0000      	Open  	;
 P-1881          	O-AV-267        	J-344           	293.9400    	6.0000      	100.0000    	0.0000      	Open  	;
 P-1882          	O-AV-268        	J-612           	136.7100    	6.0000      	140.0000    	0.0000      	Open  	;
 P-1883          	O-AV-269        	J-344           	263.3290    	6.0000      	100.0000    	0.0000      	Open  	;
 P-1884          	J-1368          	J-796           	187.1690    	4.0000      	100.0000    	0.0000      	Open  	;
 P-1885          	O-AV-271        	J-796           	294.2690    	6.0000      	100.0000    	0.0000      	Open  	;
 P-1887          	O-AV-273        	J-237           	160.2790    	4.0000      	100.0000    	0.0000      	Open  	;
 P-1888          	O-AV-274        	J-237           	130.9490    	12.0000     	100.0000    	0.0000      	Open  	;
 P-1889          	O-AV-275        	J-1120          	266.8690    	6.0000      	100.0000    	0.0000      	Open  	;
 P-189           	J-238           	I-AV-518        	141.0000    	16.0000     	140.0000    	0.0000      	Open  	;
 P-1890          	O-AV-276        	J-1011          	154.7700    	12.0000     	100.0000    	0.0000      	Open  	;
 P-1891          	O-AV-277        	J-1038          	341.2690    	6.0000      	140.0000    	0.0000      	Open  	;
 P-1893          	O-AV-279        	J-516           	124.5290    	12.0000     	140.0000    	0.0000      	Open  	;
 P-1894          	J-1441          	J-1038          	307.0590    	6.0000      	100.0000    	0.0000      	Open  	;
 P-1895          	O-AV-281        	J-234           	211.1990    	6.0000      	140.0000    	0.0000      	Open  	;
 P-1896          	O-AV-282        	J-1312          	169.6100    	6.0000      	140.0000    	0.0000      	Open  	;
 P-1897          	O-AV-283        	J-86            	218.0700    	6.0000      	100.0000    	0.0000      	Open  	;
 P-1898          	J-1407          	J-1312          	106.7300    	6.0000      	100.0000    	0.0000      	Open  	;
 P-19            	J-6             	J-22            	106.7790    	12.0000     	140.0000    	0.0000      	Open  	;
 P-190           	J-240           	I-AV-263        	133.6100    	6.0000      	140.0000    	0.0000      	Open  	;
 P-1900          	O-AV-286        	J-235           	331.8590    	12.0000     	140.0000    	0.0000      	Open  	;
 P-1901          	O-AV-287        	J-234           	207.3200    	6.0000      	140.0000    	0.0000      	Open  	;
 P-1902          	J-1408          	J-129           	113.2200    	6.0000      	100.0000    	0.0000      	Open  	;
 P-1904          	O-AV-290        	J-516           	278.9700    	14.0000     	100.0000    	0.0000      	Open  	;
 P-1905          	O-AV-291        	J-86            	177.4400    	6.0000      	100.0000    	0.0000      	Open  	;
 P-1906          	O-AV-292        	J-1059          	339.7000    	4.0000      	100.0000    	0.0000      	Open  	;
 P-1907          	O-AV-293        	J-1058          	407.2600    	2.0000      	100.0000    	0.0000      	Open  	;
 P-1908          	O-AV-294        	J-381           	204.2590    	6.0000      	100.0000    	0.0000      	Open  	;
 P-1909          	J-1409          	J-209           	95.0590     	6.0000      	100.0000    	0.0000      	Open  	;
 P-191           	J-242           	I-AV-681        	761.3200    	12.0000     	140.0000    	0.0000      	Open  	;
 P-1910          	O-AV-296        	J-380           	470.2600    	6.0000      	100.0000    	0.0000      	Open  	;
 P-1911          	O-AV-297        	J-416           	178.2290    	6.0000      	100.0000    	0.0000      	Open  	;
 P-1912          	O-AV-298        	J-209           	178.6790    	6.0000      	140.0000    	0.0000      	Open  	;
 P-1913          	O-AV-299        	J-720           	116.8700    	12.0000     	140.0000    	0.0000      	Open  	;
 P-1915          	J-1335          	J-516           	336.1090    	12.0000     	140.0000    	0.0000      	Open  	;
 P-1916          	O-AV-302        	J-855           	145.6390    	12.0000     	100.0000    	0.0000      	Open  	;
 P-1918          	J-1435          	J-855           	161.2200    	6.0000      	140.0000    	0.0000      	Open  	;
 P-1919          	O-AV-305        	J-1316          	255.2700    	6.0000      	100.0000    	0.0000      	Open  	;
 P-192           	J-243           	J-244           	1360.4490   	6.0000      	100.0000    	0.0000      	Open  	;
 P-1920          	O-AV-306        	J-934           	91.2690     	6.0000      	100.0000    	0.0000      	Open  	;
 P-1921          	O-AV-307        	J-1316          	106.7500    	12.0000     	100.0000    	0.0000      	Open  	;
 P-1922          	O-AV-308        	J-391           	89.9700     	6.0000      	100.0000    	0.0000      	Open  	;
 P-1923          	J-1360          	J-1326          	192.9700    	6.0000      	100.0000    	0.0000      	Open  	;
 P-1924          	O-AV-310        	J-1008          	161.3390    	6.0000      	140.0000    	0.0000      	Open  	;
 P-1925          	J-1442          	J-286           	95.1100     	12.0000     	100.0000    	0.0000      	Open  	;
 P-1926          	O-AV-312        	J-1307          	238.0500    	12.0000     	140.0000    	0.0000      	Open  	;
 P-1927          	O-AV-313        	J-279           	297.1400    	12.0000     	100.0000    	0.0000      	Open  	;
 P-1929          	O-AV-315        	J-944           	191.7290    	6.0000      	140.0000    	0.0000      	Open  	;
 P-193           	J-245           	J-246           	904.8300    	8.0000      	100.0000    	0.0000      	Open  	;
 P-1931          	J-1427          	J-856           	177.6990    	12.0000     	100.0000    	0.0000      	Open  	;
 P-1933          	O-AV-319        	J-856           	220.8000    	6.0000      	140.0000    	0.0000      	Open  	;
 P-1934          	O-AV-320        	J-784           	132.1490    	6.0000      	100.0000    	0.0000      	Open  	;
 P-1935          	O-AV-321        	J-32            	170.5800    	12.0000     	100.0000    	0.0000      	Open  	;
 P-1936          	O-AV-322        	J-391           	314.2390    	6.0000      	140.0000    	0.0000      	Open  	;
 P-1937          	O-AV-323        	J-716           	149.2890    	6.0000      	100.0000    	0.0000      	Open  	;
 P-1938          	J-1436          	J-279           	96.7900     	6.0000      	100.0000    	0.0000      	Open  	;
 P-1939          	O-AV-325        	J-133           	118.0000    	6.0000      	100.0000    	0.0000      	Open  	;
 P-194           	J-247           	J-248           	406.9500    	6.0000      	100.0000    	0.0000      	Open  	;
 P-1941          	O-AV-327        	J-1265          	102.3000    	6.0000      	100.0000    	0.0000      	Open  	;
 P-1942          	J-1428          	J-1125          	116.4190    	6.0000      	100.0000    	0.0000      	Open  	;
 P-1943          	J-1084          	J-492           	132.9490    	12.0000     	100.0000    	0.0000      	Open  	;
 P-1944          	O-AV-330        	J-1084          	125.2390    	6.0000      	100.0000    	0.0000      	Open  	;
 P-1948          	O-AV-334        	J-853           	341.7000    	6.0000      	100.0000    	0.0000      	Open  	;
 P-1949          	O-AV-335        	J-715           	111.7600    	6.0000      	140.0000    	0.0000      	Open  	;
 P-195           	J-238           	I-AV-516        	243.4290    	8.0000      	140.0000    	0.0000      	Open  	;
 P-1950          	J-642           	J-267           	592.3490    	6.0000      	100.0000    	0.0000      	Open  	;
 P-1951          	J-584           	J-491           	179.2700    	12.0000     	100.0000    	0.0000      	Open  	;
 P-1952          	O-AV-338        	J-286           	220.4290    	12.0000     	100.0000    	0.0000      	Open  	;
 P-1953          	J-1406          	J-234           	210.7500    	12.0000     	140.0000    	0.0000      	Open  	;
 P-1954          	J-704           	J-1342          	191.2790    	6.0000      	100.0000    	0.0000      	Open  	;
 P-1955          	O-AV-341        	J-251           	105.5190    	12.0000     	100.0000    	0.0000      	Open  	;
 P-1956          	O-AV-342        	J-121           	301.7500    	6.0000      	100.0000    	0.0000      	Open  	;
 P-1957          	O-AV-343        	J-701           	181.7400    	6.0000      	100.0000    	0.0000      	Open  	;
 P-1958          	O-AV-344        	J-323           	318.0190    	6.0000      	100.0000    	0.0000      	Open  	;
 P-1959          	O-AV-345        	J-535           	193.8600    	6.0000      	100.0000    	0.0000      	Open  	;
 P-196           	J-1445          	J-1281          	494.5100    	6.0000      	100.0000    	0.0000      	Open  	;
 P-1960          	O-AV-346        	J-864           	120.4800    	14.0000     	100.0000    	0.0000      	Open  	;
 P-1962          	O-AV-348        	J-1314          	135.0000    	6.0000      	100.0000    	0.0000      	Open  	;
 P-1963          	O-AV-349        	J-1314          	88.2690     	6.0000      	100.0000    	0.0000      	Open  	;
 P-1964          	J-1356          	J-1333          	162.1790    	6.0000      	100.0000    	0.0000      	Open  	;
 P-1965          	J-1357          	J-338           	142.9100    	12.0000     	100.0000    	0.0000      	Open  	;
 P-1966          	O-AV-352        	J-339           	131.9490    	6.0000      	100.0000    	0.0000      	Open  	;
 P-1967          	J-1437          	J-192           	120.9700    	6.0000      	100.0000    	0.0000      	Open  	;
 P-1968          	O-AV-354        	J-192           	107.0690    	6.0000      	100.0000    	0.0000      	Open  	;
 P-1969          	O-AV-355        	J-33            	162.7200    	6.0000      	100.0000    	0.0000      	Open  	;
 P-197           	J-252           	J-242           	476.4800    	12.0000     	140.0000    	0.0000      	Open  	;
 P-1971          	O-AV-357        	J-780           	748.0800    	14.0000     	100.0000    	0.0000      	Open  	;
 P-1972          	O-AV-358        	J-32            	113.8790    	6.0000      	100.0000    	0.0000      	Open  	;
 P-1973          	O-AV-359        	J-1315          	65.6690     	6.0000      	100.0000    	0.0000      	Open  	;
 P-1974          	O-AV-360        	J-440           	129.4290    	6.0000      	100.0000    	0.0000      	Open  	;
 P-1975          	O-AV-361        	J-26            	670.2990    	6.0000      	100.0000    	0.0000      	Open  	;
 P-1977          	O-AV-363        	J-1297          	151.0700    	6.0000      	100.0000    	0.0000      	Open  	;
 P-1978          	O-AV-364        	J-1332          	141.2590    	12.0000     	100.0000    	0.0000      	Open  	;
 P-198           	J-236           	I-AV-320        	107.4800    	6.0000      	100.0000    	0.0000      	Open  	;
 P-1980          	O-AV-366        	J-492           	265.2500    	12.0000     	100.0000    	0.0000      	Open  	;
 P-1981          	J-1382          	J-557           	247.1790    	12.0000     	100.0000    	0.0000      	Open  	;
 P-1982          	J-1447          	J-781           	202.8990    	14.0000     	100.0000    	0.0000      	Open  	;
 P-1983          	O-AV-369        	J-1139          	333.7390    	12.0000     	100.0000    	0.0000      	Open  	;
 P-1984          	O-AV-370        	J-795           	269.4400    	12.0000     	100.0000    	0.0000      	Open  	;
 P-1985          	O-AV-371        	J-1139          	66.4890     	6.0000      	100.0000    	0.0000      	Open  	;
 P-1986          	O-AV-372        	J-1330          	169.6190    	12.0000     	100.0000    	0.0000      	Open  	;
 P-1987          	J-1385          	J-765           	197.3890    	6.0000      	100.0000    	0.0000      	Open  	;
 P-1988          	O-AV-374        	J-1329          	132.8500    	12.0000     	100.0000    	0.0000      	Open  	;
 P-1989          	O-AV-375        	J-366           	110.5990    	12.0000     	140.0000    	0.0000      	Open  	;
 P-199           	J-855           	J-287           	110.7900    	12.0000     	100.0000    	0.0000      	Open  	;
 P-1990          	O-AV-376        	J-366           	88.7500     	12.0000     	100.0000    	0.0000      	Open  	;
 P-1991          	O-AV-377        	J-517           	206.6190    	12.0000     	140.0000    	0.0000      	Open  	;
 P-1992          	O-AV-378        	J-1303          	120.9890    	6.0000      	100.0000    	0.0000      	Open  	;
 P-1993          	O-AV-379        	J-781           	132.6990    	6.0000      	100.0000    	0.0000      	Open  	;
 P-1994          	O-AV-380        	J-1303          	121.9400    	6.0000      	100.0000    	0.0000      	Open  	;
 P-1995          	O-AV-381        	J-1298          	145.1100    	12.0000     	140.0000    	0.0000      	Open  	;
 P-1996          	O-AV-382        	J-888           	110.6690    	12.0000     	140.0000    	0.0000      	Open  	;
 P-1997          	O-AV-383        	J-915           	91.2390     	6.0000      	140.0000    	0.0000      	Open  	;
 P-1998          	O-AV-384        	J-220           	169.2790    	6.0000      	100.0000    	0.0000      	Open  	;
 P-1999          	O-AV-385        	J-1255          	234.5500    	8.0000      	100.0000    	0.0000      	Open  	;
 P-2             	J-3             	J-4             	212.3690    	6.0000      	100.0000    	0.0000      	Open  	;
 P-20            	J-37            	I-AV-217        	854.9090    	6.0000      	150.0000    	0.0000      	Open  	;
 P-200           	T-5             	J-255           	964.9000    	12.0000     	100.0000    	0.0000      	Open  	;
 P-2001          	J-1381          	J-27            	216.6390    	6.0000      	100.0000    	0.0000      	Open  	;
 P-2002          	O-AV-388        	J-106           	239.9600    	10.0000     	100.0000    	0.0000      	Open  	;
 P-2003          	O-AV-389        	J-996           	88.2090     	6.0000      	100.0000    	0.0000      	Open  	;
 P-2004          	O-AV-390        	J-596           	177.1990    	6.0000      	100.0000    	0.0000      	Open  	;
 P-2005          	O-AV-391        	J-372           	59.2790     	6.0000      	100.0000    	0.0000      	Open  	;
 P-2006          	J-1421          	J-1243          	123.2900    	6.0000      	100.0000    	0.0000      	Open  	;
 P-2007          	O-AV-393        	J-372           	150.9290    	6.0000      	100.0000    	0.0000      	Open  	;
 P-2008          	J-1361          	J-1328          	225.0200    	6.0000      	100.0000    	0.0000      	Open  	;
 P-201           	J-256           	J-1081          	881.9500    	12.0000     	100.0000    	0.0000      	Open  	;
 P-2011          	J-1362          	J-1327          	225.1900    	6.0000      	100.0000    	0.0000      	Open  	;
 P-2012          	O-AV-398        	J-1242          	109.8490    	6.0000      	100.0000    	0.0000      	Open  	;
 P-2013          	J-1359          	J-738           	223.7700    	12.0000     	100.0000    	0.0000      	Open  	;
 P-2014          	J-1358          	J-1331          	160.1690    	6.0000      	100.0000    	0.0000      	Open  	;
 P-2015          	O-AV-401        	J-886           	84.2300     	10.0000     	100.0000    	0.0000      	Open  	;
 P-2016          	O-AV-402        	J-392           	138.4290    	6.0000      	100.0000    	0.0000      	Open  	;
 P-2017          	O-AV-403        	J-738           	124.5590    	6.0000      	100.0000    	0.0000      	Open  	;
 P-2018          	O-AV-404        	J-1008          	460.4590    	12.0000     	100.0000    	0.0000      	Open  	;
 P-2019          	O-AV-405        	J-325           	125.6900    	6.0000      	100.0000    	0.0000      	Open  	;
 P-202           	J-784           	J-854           	64.9400     	6.0000      	100.0000    	0.0000      	Open  	;
 P-2020          	O-AV-406        	J-637           	119.7900    	6.0000      	100.0000    	0.0000      	Open  	;
 P-2021          	O-AV-407        	J-358           	432.1700    	12.0000     	140.0000    	0.0000      	Open  	;
 P-2022          	O-AV-408        	J-324           	102.1600    	6.0000      	140.0000    	0.0000      	Open  	;
 P-2023          	O-AV-409        	J-324           	73.5800     	12.0000     	140.0000    	0.0000      	Open  	;
 P-2024          	J-1423          	J-622           	175.5090    	6.0000      	100.0000    	0.0000      	Open  	;
 P-2025          	J-1103          	J-1424          	577.9890    	6.0000      	100.0000    	0.0000      	Open  	;
 P-2026          	I-AV-446        	J-1339          	237.4900    	12.0000     	100.0000    	0.0000      	Open  	;
 P-2027          	O-AV-413        	J-175           	492.7600    	6.0000      	100.0000    	0.0000      	Open  	;
 P-2029          	O-AV-415        	J-468           	105.4300    	6.0000      	100.0000    	0.0000      	Open  	;
 P-203           	J-260           	J-261           	1227.7390   	18.0000     	140.0000    	0.0000      	Open  	;
 P-2030          	O-AV-416        	J-359           	211.3200    	12.0000     	100.0000    	0.0000      	Open  	;
 P-2031          	O-AV-417        	J-359           	81.0000     	12.0000     	140.0000    	0.0000      	Open  	;
 P-2032          	O-AV-418        	J-838           	279.4290    	6.0000      	140.0000    	0.0000      	Open  	;
 P-2033          	O-AV-419        	J-1308          	116.6390    	6.0000      	140.0000    	0.0000      	Open  	;
 P-2034          	J-615           	J-461           	160.7200    	6.0000      	100.0000    	0.0000      	Open  	;
 P-2035          	O-AV-421        	J-468           	325.0190    	6.0000      	100.0000    	0.0000      	Open  	;
 P-2036          	J-1334          	J-613           	412.7000    	12.0000     	140.0000    	0.0000      	Open  	;
 P-2037          	O-AV-423        	J-627           	144.1190    	8.0000      	100.0000    	0.0000      	Open  	;
 P-2038          	O-AV-424        	J-373           	327.4100    	6.0000      	140.0000    	0.0000      	Open  	;
 P-2039          	O-AV-425        	J-1355          	214.0800    	12.0000     	100.0000    	0.0000      	Open  	;
 P-204           	J-262           	J-263           	1559.5200   	12.0000     	140.0000    	0.0000      	Open  	;
 P-2040          	O-AV-426        	J-1309          	108.8300    	12.0000     	140.0000    	0.0000      	Open  	;
 P-2043          	O-AV-429        	J-374           	560.5200    	2.0000      	100.0000    	0.0000      	Open  	;
 P-2045          	O-AV-431        	J-49            	143.9290    	10.0000     	100.0000    	0.0000      	Open  	;
 P-2046          	O-AV-432        	J-30            	373.6600    	6.0000      	100.0000    	0.0000      	Open  	;
 P-2049          	O-AV-435        	J-161           	90.1100     	10.0000     	100.0000    	0.0000      	Open  	;
 P-205           	J-264           	J-265           	64.9700     	6.0000      	140.0000    	0.0000      	Open  	;
 P-2050          	O-AV-436        	J-489           	407.1700    	2.0000      	100.0000    	0.0000      	Open  	;
 P-2051          	J-1422          	J-161           	109.5590    	12.0000     	100.0000    	0.0000      	Open  	;
 P-2052          	O-AV-438        	J-406           	321.8800    	12.0000     	140.0000    	0.0000      	Open  	;
 P-2054          	O-AV-440        	J-31            	142.4190    	2.0000      	100.0000    	0.0000      	Open  	;
 P-2055          	J-1415          	J-31            	136.6790    	6.0000      	100.0000    	0.0000      	Open  	;
 P-2056          	O-AV-442        	J-326           	157.1690    	10.0000     	100.0000    	0.0000      	Open  	;
 P-2057          	I-AV-440        	J-631           	375.6190    	2.0000      	100.0000    	0.0000      	Open  	;
 P-2058          	O-AV-444        	J-407           	334.3990    	6.0000      	100.0000    	0.0000      	Open  	;
 P-2059          	O-AV-445        	J-1337          	443.6090    	6.0000      	100.0000    	0.0000      	Open  	;
 P-206           	J-266           	J-267           	150.5290    	6.0000      	100.0000    	0.0000      	Open  	;
 P-2060          	O-AV-446        	J-1299          	190.7700    	12.0000     	100.0000    	0.0000      	Open  	;
 P-2062          	J-1425          	J-1244          	138.4790    	8.0000      	100.0000    	0.0000      	Open  	;
 P-2063          	J-1363          	J-1069          	295.7600    	6.0000      	100.0000    	0.0000      	Open  	;
 P-2064          	O-AV-450        	J-980           	168.3390    	6.0000      	100.0000    	0.0000      	Open  	;
 P-2065          	O-AV-451        	J-469           	512.7190    	6.0000      	100.0000    	0.0000      	Open  	;
 P-2066          	O-AV-452        	J-336           	130.7700    	6.0000      	100.0000    	0.0000      	Open  	;
 P-2067          	O-AV-453        	J-337           	136.7790    	1.0000      	100.0000    	0.0000      	Open  	;
 P-2068          	O-AV-454        	J-543           	103.8600    	2.0000      	140.0000    	0.0000      	Open  	;
 P-2069          	O-AV-455        	J-904           	295.6190    	6.0000      	100.0000    	0.0000      	Open  	;
 P-2070          	O-AV-456        	J-993           	127.4490    	6.0000      	100.0000    	0.0000      	Open  	;
 P-2071          	J-1384          	J-627           	126.0590    	8.0000      	100.0000    	0.0000      	Open  	;
 P-2072          	J-993           	J-997           	270.2600    	3.0000      	100.0000    	0.0000      	Open  	;
 P-2073          	J-1371          	J-709           	679.4890    	6.0000      	100.0000    	0.0000      	Open  	;
 P-2074          	O-AV-460        	J-904           	192.1990    	6.0000      	100.0000    	0.0000      	Open  	;
 P-2075          	J-1371          	J-154           	191.6790    	6.0000      	100.0000    	0.0000      	Open  	;
 P-2076          	O-AV-462        	J-432           	219.0700    	6.0000      	100.0000    	0.0000      	Open  	;
 P-2077          	J-1369          	I-AV-462        	118.6290    	6.0000      	100.0000    	0.0000      	Open  	;
 P-2078          	J-1420          	J-874           	241.4900    	2.0000      	100.0000    	0.0000      	Open  	;
 P-2079          	O-AV-465        	J-436           	221.3300    	6.0000      	140.0000    	0.0000      	Open  	;
 P-208           	J-269           	J-270           	608.7190    	8.0000      	140.0000    	0.0000      	Open  	;
 P-2080          	J-1434          	J-417           	132.0290    	6.0000      	100.0000    	0.0000      	Open  	;
 P-2081          	O-AV-467        	J-224           	120.8190    	6.0000      	100.0000    	0.0000      	Open  	;
 P-2083          	O-AV-469        	J-760           	262.3590    	2.0000      	100.0000    	0.0000      	Open  	;
 P-2084          	O-AV-470        	J-188           	126.3890    	6.0000      	100.0000    	0.0000      	Open  	;
 P-2085          	O-AV-471        	J-1344          	161.7290    	6.0000      	100.0000    	0.0000      	Open  	;
 P-2086          	O-AV-472        	J-1343          	159.8690    	6.0000      	100.0000    	0.0000      	Open  	;
 P-2087          	O-AV-473        	J-844           	216.0890    	6.0000      	100.0000    	0.0000      	Open  	;
 P-2088          	O-AV-474        	J-186           	254.2790    	6.0000      	100.0000    	0.0000      	Open  	;
 P-2089          	O-AV-475        	J-186           	150.6390    	2.0000      	100.0000    	0.0000      	Open  	;
 P-209           	J-271           	J-272           	169.0890    	8.0000      	140.0000    	0.0000      	Open  	;
 P-2091          	O-AV-477        	J-845           	365.8800    	6.0000      	100.0000    	0.0000      	Open  	;
 P-2092          	O-AV-478        	J-178           	229.8000    	8.0000      	100.0000    	0.0000      	Open  	;
 P-2093          	O-AV-479        	J-220           	289.2390    	8.0000      	100.0000    	0.0000      	Open  	;
 P-2094          	O-AV-480        	J-178           	97.1800     	10.0000     	100.0000    	0.0000      	Open  	;
 P-2095          	O-AV-481        	J-68            	176.6790    	8.0000      	100.0000    	0.0000      	Open  	;
 P-2096          	O-AV-482        	J-43            	234.4290    	8.0000      	100.0000    	0.0000      	Open  	;
 P-2097          	O-AV-483        	J-44            	219.3600    	12.0000     	100.0000    	0.0000      	Open  	;
 P-2099          	O-AV-485        	J-1021          	236.0590    	6.0000      	100.0000    	0.0000      	Open  	;
 P-21            	J-38            	J-39            	51.8600     	6.0000      	150.0000    	0.0000      	Open  	;
 P-210           	J-273           	J-274           	150.9790    	6.0000      	140.0000    	0.0000      	Open  	;
 P-2100          	J-1348          	J-1052          	322.1090    	6.0000      	100.0000    	0.0000      	Open  	;
 P-2101          	O-AV-487        	J-1347          	156.2290    	6.0000      	140.0000    	0.0000      	Open  	;
 P-2102          	O-AV-488        	J-817           	135.0290    	10.0000     	100.0000    	0.0000      	Open  	;
 P-2103          	O-AV-489        	J-1018          	159.5590    	6.0000      	100.0000    	0.0000      	Open  	;
 P-2104          	O-AV-490        	J-1340          	162.1900    	12.0000     	100.0000    	0.0000      	Open  	;
 P-2105          	J-1370          	J-1346          	163.0800    	10.0000     	100.0000    	0.0000      	Open  	;
 P-2107          	O-AV-493        	J-598           	280.7300    	6.0000      	100.0000    	0.0000      	Open  	;
 P-2108          	O-AV-494        	J-169           	260.5790    	6.0000      	100.0000    	0.0000      	Open  	;
 P-2109          	O-AV-495        	J-589           	235.8090    	6.0000      	100.0000    	0.0000      	Open  	;
 P-211           	J-275           	J-276           	255.0890    	6.0000      	140.0000    	0.0000      	Open  	;
 P-2110          	O-AV-496        	J-800           	339.2500    	2.0000      	100.0000    	0.0000      	Open  	;
 P-2111          	O-AV-497        	J-68            	770.2100    	6.0000      	100.0000    	0.0000      	Open  	;
 P-2112          	O-AV-498        	J-1004          	137.2890    	6.0000      	100.0000    	0.0000      	Open  	;
 P-2113          	O-AV-499        	J-1004          	210.4790    	6.0000      	100.0000    	0.0000      	Open  	;
 P-2114          	J-1431          	J-173           	169.1600    	6.0000      	100.0000    	0.0000      	Open  	;
 P-2117          	O-AV-503        	J-172           	121.6390    	6.0000      	100.0000    	0.0000      	Open  	;
 P-2118          	I-AV-503        	J-568           	291.2690    	6.0000      	100.0000    	0.0000      	Open  	;
 P-2119          	O-AV-505        	J-405           	283.8290    	6.0000      	100.0000    	0.0000      	Open  	;
 P-212           	J-277           	J-278           	424.3690    	6.0000      	100.0000    	0.0000      	Open  	;
 P-2120          	O-AV-506        	J-923           	327.9800    	6.0000      	100.0000    	0.0000      	Open  	;
 P-2121          	O-AV-507        	J-1036          	119.7200    	6.0000      	100.0000    	0.0000      	Open  	;
 P-2122          	J-1430          	J-184           	197.2890    	6.0000      	100.0000    	0.0000      	Open  	;
 P-2123          	O-AV-509        	J-190           	149.9700    	6.0000      	100.0000    	0.0000      	Open  	;
 P-2124          	O-AV-510        	J-353           	224.3800    	6.0000      	100.0000    	0.0000      	Open  	;
 P-2125          	O-AV-511        	J-1040          	159.5590    	6.0000      	100.0000    	0.0000      	Open  	;
 P-2126          	J-379           	J-221           	261.5590    	6.0000      	100.0000    	0.0000      	Open  	;
 P-2127          	J-1396          	J-773           	139.3690    	6.0000      	100.0000    	0.0000      	Open  	;
 P-2128          	O-AV-514        	J-1195          	262.9700    	6.0000      	100.0000    	0.0000      	Open  	;
 P-2129          	O-AV-515        	J-420           	202.2200    	12.0000     	140.0000    	0.0000      	Open  	;
 P-213           	J-133           	J-1436          	160.8600    	6.0000      	100.0000    	0.0000      	Open  	;
 P-2130          	O-AV-516        	J-249           	319.5190    	8.0000      	140.0000    	0.0000      	Open  	;
 P-2131          	J-1429          	J-812           	203.7400    	12.0000     	100.0000    	0.0000      	Open  	;
 P-2132          	O-AV-518        	J-239           	117.3090    	16.0000     	140.0000    	0.0000      	Open  	;
 P-2133          	O-AV-519        	J-419           	2020.4490   	16.0000     	140.0000    	0.0000      	Open  	;
 P-2134          	O-AV-520        	J-1246          	1271.0600   	8.0000      	140.0000    	0.0000      	Open  	;
 P-2136          	O-AV-522        	J-249           	217.2400    	6.0000      	100.0000    	0.0000      	Open  	;
 P-2137          	O-AV-523        	J-221           	217.7500    	6.0000      	100.0000    	0.0000      	Open  	;
 P-2138          	O-AV-524        	J-813           	277.8900    	12.0000     	100.0000    	0.0000      	Open  	;
 P-2139          	O-AV-525        	J-814           	1276.0300   	6.0000      	100.0000    	0.0000      	Open  	;
 P-214           	J-280           	J-281           	98.4300     	6.0000      	100.0000    	0.0000      	Open  	;
 P-2140          	O-AV-526        	J-1275          	677.8800    	6.0000      	100.0000    	0.0000      	Open  	;
 P-2141          	O-AV-527        	J-906           	170.5590    	6.0000      	100.0000    	0.0000      	Open  	;
 P-2142          	O-AV-528        	J-514           	280.7900    	12.0000     	100.0000    	0.0000      	Open  	;
 P-2143          	O-AV-529        	J-1205          	157.3800    	6.0000      	100.0000    	0.0000      	Open  	;
 P-2144          	O-AV-530        	J-842           	171.9100    	6.0000      	100.0000    	0.0000      	Open  	;
 P-2145          	O-AV-531        	J-579           	532.6090    	8.0000      	140.0000    	0.0000      	Open  	;
 P-2146          	O-AV-532        	J-269           	408.6190    	8.0000      	140.0000    	0.0000      	Open  	;
 P-2147          	O-AV-533        	J-775           	160.5800    	8.0000      	100.0000    	0.0000      	Open  	;
 P-2148          	O-AV-534        	J-221           	125.6290    	6.0000      	140.0000    	0.0000      	Open  	;
 P-2149          	O-AV-535        	J-850           	298.8290    	6.0000      	100.0000    	0.0000      	Open  	;
 P-215           	J-282           	J-283           	460.4800    	6.0000      	140.0000    	0.0000      	Open  	;
 P-2150          	O-AV-536        	J-776           	159.0200    	6.0000      	100.0000    	0.0000      	Open  	;
 P-2151          	O-AV-537        	J-678           	173.8390    	6.0000      	100.0000    	0.0000      	Open  	;
 P-2152          	J-1451          	J-909           	166.8200    	6.0000      	100.0000    	0.0000      	Open  	;
 P-2153          	O-AV-539        	J-1029          	184.3600    	8.0000      	100.0000    	0.0000      	Open  	;
 P-2154          	O-AV-540        	J-1083          	115.0800    	8.0000      	100.0000    	0.0000      	Open  	;
 P-2155          	O-AV-541        	J-979           	146.7500    	6.0000      	100.0000    	0.0000      	Open  	;
 P-2156          	O-AV-542        	J-707           	182.8390    	8.0000      	100.0000    	0.0000      	Open  	;
 P-2157          	O-AV-543        	J-978           	194.6990    	6.0000      	100.0000    	0.0000      	Open  	;
 P-2158          	J-1249          	J-1394          	487.3800    	6.0000      	100.0000    	0.0000      	Open  	;
 P-2159          	O-AV-545        	J-1143          	113.6900    	6.0000      	100.0000    	0.0000      	Open  	;
 P-216           	J-284           	J-285           	98.8890     	2.0000      	140.0000    	0.0000      	Open  	;
 P-2160          	O-AV-546        	J-1122          	471.0400    	6.0000      	100.0000    	0.0000      	Open  	;
 P-2162          	O-AV-548        	J-142           	122.3000    	6.0000      	100.0000    	0.0000      	Open  	;
 P-2163          	O-AV-549        	J-1122          	100.0500    	6.0000      	100.0000    	0.0000      	Open  	;
 P-2164          	O-AV-550        	J-42            	841.5100    	6.0000      	150.0000    	0.0000      	Open  	;
 P-2165          	O-AV-551        	J-41            	231.3690    	6.0000      	100.0000    	0.0000      	Open  	;
 P-2166          	O-AV-552        	J-1272          	160.4600    	6.0000      	100.0000    	0.0000      	Open  	;
 P-2168          	O-AV-554        	J-685           	163.6100    	6.0000      	100.0000    	0.0000      	Open  	;
 P-2169          	I-AV-554        	J-684           	596.1900    	6.0000      	100.0000    	0.0000      	Open  	;
 P-217           	J-1316          	I-AV-306        	82.9800     	6.0000      	100.0000    	0.0000      	Open  	;
 P-2170          	J-1229          	J-1337          	898.0800    	6.0000      	100.0000    	0.0000      	Open  	;
 P-2171          	O-AV-557        	J-1143          	105.8190    	6.0000      	100.0000    	0.0000      	Open  	;
 P-2173          	O-AV-559        	J-684           	223.0290    	6.0000      	100.0000    	0.0000      	Open  	;
 P-2175          	J-1262          	O-AV-562        	967.2500    	6.0000      	100.0000    	0.0000      	Open  	;
 P-2177          	O-AV-563        	J-1227          	177.6490    	6.0000      	100.0000    	0.0000      	Open  	;
 P-2178          	O-AV-564        	J-1397          	499.7790    	8.0000      	100.0000    	0.0000      	Open  	;
 P-2179          	J-717           	J-1440          	341.8800    	6.0000      	100.0000    	0.0000      	Open  	;
 P-218           	J-226           	J-288           	217.8000    	6.0000      	140.0000    	0.0000      	Open  	;
 P-2180          	J-1439          	J-1086          	310.3390    	6.0000      	100.0000    	0.0000      	Open  	;
 P-2181          	J-1397          	J-964           	187.8800    	8.0000      	100.0000    	0.0000      	Open  	;
 P-2182          	O-AV-568        	J-316           	77.5990     	6.0000      	100.0000    	0.0000      	Open  	;
 P-2183          	O-AV-569        	J-964           	155.5390    	8.0000      	100.0000    	0.0000      	Open  	;
 P-2185          	J-1393          	J-718           	149.6000    	6.0000      	100.0000    	0.0000      	Open  	;
 P-2186          	O-AV-572        	J-1086          	140.5290    	6.0000      	100.0000    	0.0000      	Open  	;
 P-2187          	J-1438          	J-778           	133.2290    	6.0000      	100.0000    	0.0000      	Open  	;
 P-2188          	O-AV-574        	J-1037          	151.2290    	6.0000      	100.0000    	0.0000      	Open  	;
 P-2189          	J-1398          	J-1042          	133.7790    	6.0000      	100.0000    	0.0000      	Open  	;
 P-219           	J-289           	J-290           	318.2390    	6.0000      	100.0000    	0.0000      	Open  	;
 P-2190          	O-AV-576        	J-1350          	54.7290     	6.0000      	100.0000    	0.0000      	Open  	;
 P-2191          	O-AV-577        	J-778           	357.4890    	8.0000      	100.0000    	0.0000      	Open  	;
 P-2192          	J-1349          	J-550           	519.9000    	8.0000      	100.0000    	0.0000      	Open  	;
 P-2193          	O-AV-579        	J-317           	640.0100    	6.0000      	100.0000    	0.0000      	Open  	;
 P-2195          	O-AV-581        	J-243           	94.6690     	6.0000      	100.0000    	0.0000      	Open  	;
 P-2196          	O-AV-582        	J-549           	295.1000    	8.0000      	100.0000    	0.0000      	Open  	;
 P-2197          	O-AV-583        	J-755           	144.4600    	8.0000      	100.0000    	0.0000      	Open  	;
 P-2198          	O-AV-584        	J-573           	441.2600    	8.0000      	100.0000    	0.0000      	Open  	;
 P-2199          	O-AV-585        	J-1055          	232.4400    	8.0000      	100.0000    	0.0000      	Open  	;
 P-22            	J-40            	I-AV-218        	185.5290    	6.0000      	100.0000    	0.0000      	Open  	;
 P-220           	J-291           	J-292           	246.4700    	8.0000      	100.0000    	0.0000      	Open  	;
 P-2200          	O-AV-586        	I-AV-595        	764.1190    	6.0000      	100.0000    	0.0000      	Open  	;
 P-2201          	J-1390          	J-1269          	130.3990    	6.0000      	100.0000    	0.0000      	Open  	;
 P-2202          	J-1055          	O-AV-589        	307.4890    	8.0000      	100.0000    	0.0000      	Open  	;
 P-2204          	O-AV-590        	J-317           	533.7290    	2.0000      	100.0000    	0.0000      	Open  	;
 P-2205          	O-AV-591        	J-314           	215.9190    	6.0000      	100.0000    	0.0000      	Open  	;
 P-2206          	J-1391          	J-314           	171.5590    	6.0000      	100.0000    	0.0000      	Open  	;
 P-2207          	O-AV-593        	J-315           	449.2090    	6.0000      	100.0000    	0.0000      	Open  	;
 P-2208          	O-AV-594        	I-AV-585        	960.8690    	8.0000      	100.0000    	0.0000      	Open  	;
 P-2209          	O-AV-595        	J-667           	263.8900    	6.0000      	100.0000    	0.0000      	Open  	;
 P-221           	J-293           	J-24            	421.6600    	6.0000      	100.0000    	0.0000      	Open  	;
 P-2211          	O-AV-597        	J-667           	111.4800    	8.0000      	100.0000    	0.0000      	Open  	;
 P-2212          	O-AV-598        	J-315           	154.0000    	6.0000      	100.0000    	0.0000      	Open  	;
 P-2213          	O-AV-599        	J-315           	211.4790    	6.0000      	100.0000    	0.0000      	Open  	;
 P-2214          	O-AV-600        	J-422           	248.1490    	12.0000     	100.0000    	0.0000      	Open  	;
 P-2216          	J-250           	J-292           	230.7290    	6.0000      	100.0000    	0.0000      	Open  	;
 P-2217          	O-AV-603        	J-291           	104.0190    	8.0000      	100.0000    	0.0000      	Open  	;
 P-2218          	O-AV-604        	J-25            	344.6190    	8.0000      	100.0000    	0.0000      	Open  	;
 P-2219          	O-AV-605        	J-242           	227.4190    	8.0000      	140.0000    	0.0000      	Open  	;
 P-222           	J-294           	J-295           	829.7990    	6.0000      	100.0000    	0.0000      	Open  	;
 P-2220          	O-AV-606        	J-302           	260.7500    	6.0000      	140.0000    	0.0000      	Open  	;
 P-2221          	J-741           	J-740           	333.6900    	6.0000      	140.0000    	0.0000      	Open  	;
 P-2222          	J-413           	J-779           	349.2900    	6.0000      	140.0000    	0.0000      	Open  	;
 P-2223          	O-AV-609        	J-302           	132.7890    	8.0000      	140.0000    	0.0000      	Open  	;
 P-2224          	J-1386          	J-771           	155.5290    	6.0000      	140.0000    	0.0000      	Open  	;
 P-2225          	O-AV-611        	J-455           	270.1700    	12.0000     	100.0000    	0.0000      	Open  	;
 P-2226          	I-AV-616        	J-24            	208.8390    	6.0000      	100.0000    	0.0000      	Open  	;
 P-2227          	O-AV-613        	J-519           	173.7700    	6.0000      	100.0000    	0.0000      	Open  	;
 P-2228          	J-1388          	J-205           	178.6900    	6.0000      	100.0000    	0.0000      	Open  	;
 P-223           	J-296           	I-AV-722        	396.2500    	14.0000     	140.0000    	0.0000      	Open  	;
 P-2230          	O-AV-616        	J-205           	140.8500    	6.0000      	100.0000    	0.0000      	Open  	;
 P-2231          	O-AV-617        	J-360           	234.3200    	8.0000      	140.0000    	0.0000      	Open  	;
 P-2232          	O-AV-618        	J-893           	170.8000    	6.0000      	100.0000    	0.0000      	Open  	;
 P-2233          	O-AV-619        	J-593           	80.1100     	6.0000      	100.0000    	0.0000      	Open  	;
 P-2234          	J-1387          	J-682           	160.1190    	6.0000      	100.0000    	0.0000      	Open  	;
 P-2235          	O-AV-621        	J-445           	396.0400    	6.0000      	100.0000    	0.0000      	Open  	;
 P-2236          	O-AV-622        	J-545           	163.1000    	12.0000     	100.0000    	0.0000      	Open  	;
 P-2237          	J-1392          	J-386           	147.6900    	6.0000      	100.0000    	0.0000      	Open  	;
 P-2238          	O-AV-624        	J-386           	181.8090    	8.0000      	100.0000    	0.0000      	Open  	;
 P-2239          	O-AV-625        	J-354           	251.6390    	6.0000      	100.0000    	0.0000      	Open  	;
 P-224           	J-298           	J-299           	380.3590    	6.0000      	140.0000    	0.0000      	Open  	;
 P-2240          	I-AV-627        	J-1353          	359.8800    	8.0000      	100.0000    	0.0000      	Open  	;
 P-2241          	O-AV-627        	J-493           	233.6190    	8.0000      	100.0000    	0.0000      	Open  	;
 P-2242          	O-AV-628        	J-395           	270.4890    	6.0000      	100.0000    	0.0000      	Open  	;
 P-2244          	O-AV-630        	J-809           	246.7100    	6.0000      	100.0000    	0.0000      	Open  	;
 P-2245          	O-AV-631        	J-482           	140.3800    	8.0000      	100.0000    	0.0000      	Open  	;
 P-2246          	O-AV-632        	J-808           	389.0000    	6.0000      	100.0000    	0.0000      	Open  	;
 P-2247          	O-AV-633        	J-540           	370.2690    	6.0000      	100.0000    	0.0000      	Open  	;
 P-2248          	O-AV-634        	J-360           	127.4590    	8.0000      	140.0000    	0.0000      	Open  	;
 P-2249          	O-AV-635        	J-655           	144.5890    	8.0000      	140.0000    	0.0000      	Open  	;
 P-225           	J-300           	J-301           	1055.9000   	8.0000      	140.0000    	0.0000      	Open  	;
 P-2250          	O-AV-636        	J-571           	139.1900    	8.0000      	140.0000    	0.0000      	Open  	;
 P-2251          	O-AV-637        	J-1050          	313.6400    	6.0000      	140.0000    	0.0000      	Open  	;
 P-2252          	O-AV-638        	J-1110          	323.4590    	6.0000      	140.0000    	0.0000      	Open  	;
 P-2254          	J-1389          	J-25            	342.2500    	8.0000      	100.0000    	0.0000      	Open  	;
 P-2255          	O-AV-641        	J-165           	491.2390    	6.0000      	100.0000    	0.0000      	Open  	;
 P-2256          	O-AV-642        	J-50            	289.7500    	6.0000      	100.0000    	0.0000      	Open  	;
 P-2257          	O-AV-643        	J-165           	407.0000    	8.0000      	140.0000    	0.0000      	Open  	;
 P-2259          	J-1364          	J-1338          	191.3890    	8.0000      	140.0000    	0.0000      	Open  	;
 P-226           	J-302           	J-303           	151.2400    	8.0000      	140.0000    	0.0000      	Open  	;
 P-2260          	O-AV-646        	J-837           	183.0590    	6.0000      	100.0000    	0.0000      	Open  	;
 P-2261          	O-AV-647        	J-1075          	220.4290    	6.0000      	150.0000    	0.0000      	Open  	;
 P-2262          	O-AV-648        	J-1087          	214.6390    	8.0000      	140.0000    	0.0000      	Open  	;
 P-2263          	O-AV-649        	J-1089          	201.5200    	6.0000      	140.0000    	0.0000      	Open  	;
 P-2264          	O-AV-650        	J-1076          	119.7790    	6.0000      	150.0000    	0.0000      	Open  	;
 P-2265          	J-1452          	J-1061          	166.4700    	6.0000      	150.0000    	0.0000      	Open  	;
 P-2266          	J-1410          	J-942           	207.8300    	6.0000      	140.0000    	0.0000      	Open  	;
 P-2267          	J-974           	J-1034          	192.1100    	6.0000      	100.0000    	0.0000      	Open  	;
 P-2268          	O-AV-654        	J-1028          	209.5090    	6.0000      	140.0000    	0.0000      	Open  	;
 P-2269          	O-AV-655        	J-541           	336.8200    	12.0000     	100.0000    	0.0000      	Open  	;
 P-227           	J-301           	J-304           	268.0290    	8.0000      	140.0000    	0.0000      	Open  	;
 P-2270          	O-AV-656        	J-530           	462.3800    	12.0000     	140.0000    	0.0000      	Open  	;
 P-2271          	O-AV-657        	J-601           	652.6400    	12.0000     	140.0000    	0.0000      	Open  	;
 P-2272          	I-AV-665        	J-601           	1496.4490   	12.0000     	140.0000    	0.0000      	Open  	;
 P-2273          	O-AV-659        	J-601           	1448.1400   	12.0000     	140.0000    	0.0000      	Open  	;
 P-2274          	O-AV-660        	J-507           	580.0300    	12.0000     	140.0000    	0.0000      	Open  	;
 P-2275          	O-AV-661        	J-506           	583.1090    	12.0000     	140.0000    	0.0000      	Open  	;
 P-2276          	O-AV-662        	J-472           	596.5000    	12.0000     	140.0000    	0.0000      	Open  	;
 P-2277          	O-AV-663        	J-472           	431.8390    	12.0000     	140.0000    	0.0000      	Open  	;
 P-2278          	J-602           	O-AV-665        	1901.8390   	12.0000     	140.0000    	0.0000      	Open  	;
 P-228           	J-263           	J-305           	1070.3000   	8.0000      	140.0000    	0.0000      	Open  	;
 P-2280          	O-AV-666        	J-1230          	839.6900    	6.0000      	100.0000    	0.0000      	Open  	;
 P-2281          	O-AV-667        	J-501           	291.6700    	12.0000     	100.0000    	0.0000      	Open  	;
 P-2282          	J-791           	I-AV-669        	768.5900    	12.0000     	140.0000    	0.0000      	Open  	;
 P-2283          	O-AV-669        	J-647           	652.5000    	12.0000     	140.0000    	0.0000      	Open  	;
 P-2285          	O-AV-671        	J-647           	300.9200    	12.0000     	140.0000    	0.0000      	Open  	;
 P-2286          	O-AV-672        	J-933           	960.7990    	12.0000     	140.0000    	0.0000      	Open  	;
 P-2288          	O-AV-674        	J-297           	579.7800    	14.0000     	140.0000    	0.0000      	Open  	;
 P-2289          	O-AV-675        	J-872           	1113.5690   	18.0000     	140.0000    	0.0000      	Open  	;
 P-229           	J-306           	J-307           	489.5490    	6.0000      	100.0000    	0.0000      	Open  	;
 P-2291          	O-AV-677        	J-141           	783.7500    	12.0000     	100.0000    	0.0000      	Open  	;
 P-2292          	O-AV-678        	J-582           	82.9000     	12.0000     	100.0000    	0.0000      	Open  	;
 P-2293          	O-AV-679        	J-147           	2845.6890   	18.0000     	100.0000    	0.0000      	Open  	;
 P-2294          	O-AV-680        	J-951           	996.6690    	6.0000      	140.0000    	0.0000      	Open  	;
 P-2295          	O-AV-681        	I-AV-683        	3564.9390   	12.0000     	140.0000    	0.0000      	Open  	;
 P-2296          	O-AV-682        	I-Pump-2        	1953.9590   	18.0000     	100.0000    	0.0000      	Open  	;
 P-2297          	O-AV-683        	O-Pump-4        	1563.8290   	12.0000     	140.0000    	0.0000      	Open  	;
 P-2298          	O-AV-684        	J-1372          	1928.8490   	18.0000     	100.0000    	0.0000      	Open  	;
 P-2299          	O-AV-685        	J-1455          	978.8690    	18.0000     	100.0000    	0.0000      	Open  	;
 P-23            	J-41            	I-AV-550        	119.1800    	6.0000      	150.0000    	0.0000      	Open  	;
 P-230           	J-154           	J-308           	583.8090    	2.0000      	140.0000    	0.0000      	Open  	;
 P-2300          	O-AV-686        	I-AV-685        	7246.0690   	18.0000     	100.0000    	0.0000      	Open  	;
 P-2302          	O-AV-688        	I-AV-686        	8883.9690   	18.0000     	100.0000    	0.0000      	Open  	;
 P-2303          	O-AV-689        	J-1208          	274.2900    	6.0000      	140.0000    	0.0000      	Open  	;
 P-2304          	J-1323          	J-587           	2135.5900   	12.0000     	100.0000    	0.0000      	Open  	;
 P-2305          	O-AV-691        	J-1323          	939.8900    	12.0000     	100.0000    	0.0000      	Open  	;
 P-2306          	O-AV-692        	J-705           	283.6190    	6.0000      	100.0000    	0.0000      	Open  	;
 P-2307          	O-AV-693        	J-130           	229.9100    	16.0000     	140.0000    	0.0000      	Open  	;
 P-2308          	O-AV-694        	J-801           	807.7190    	12.0000     	100.0000    	0.0000      	Open  	;
 P-2309          	O-AV-695        	J-384           	547.6090    	16.0000     	100.0000    	0.0000      	Open  	;
 P-231           	J-309           	J-310           	358.0000    	6.0000      	140.0000    	0.0000      	Open  	;
 P-2310          	O-AV-696        	J-1352          	304.2990    	12.0000     	100.0000    	0.0000      	Open  	;
 P-2311          	J-126           	J-384           	274.8800    	8.0000      	150.0000    	0.0000      	Open  	;
 P-2313          	J-1395          	J-1248          	202.6990    	6.0000      	100.0000    	0.0000      	Open  	;
 P-2314          	I-AV-711        	J-501           	251.4600    	12.0000     	100.0000    	0.0000      	Open  	;
 P-2315          	O-AV-701        	J-219           	529.1790    	8.0000      	100.0000    	0.0000      	Open  	;
 P-2316          	J-1450          	J-112           	371.9800    	6.0000      	100.0000    	0.0000      	Open  	;
 P-2317          	O-AV-703        	J-119           	246.7290    	6.0000      	100.0000    	0.0000      	Open  	;
 P-2318          	O-AV-704        	J-743           	364.9890    	16.0000     	100.0000    	0.0000      	Open  	;
 P-2319          	O-AV-705        	J-743           	246.5590    	18.0000     	100.0000    	0.0000      	Open  	;
 P-232           	J-277           	J-311           	232.1000    	6.0000      	140.0000    	0.0000      	Open  	;
 P-2320          	O-AV-706        	J-1019          	104.0400    	6.0000      	100.0000    	0.0000      	Open  	;
 P-2321          	O-AV-707        	J-117           	216.7700    	10.0000     	100.0000    	0.0000      	Open  	;
 P-2322          	J-460           	J-124           	371.7790    	18.0000     	100.0000    	0.0000      	Open  	;
 P-2323          	O-AV-709        	J-62            	147.2890    	6.0000      	100.0000    	0.0000      	Open  	;
 P-2324          	O-AV-710        	J-123           	289.0000    	2.0000      	100.0000    	0.0000      	Open  	;
 P-2325          	O-AV-711        	J-502           	108.8700    	12.0000     	100.0000    	0.0000      	Open  	;
 P-2326          	J-123           	J-122           	514.6790    	2.0000      	100.0000    	0.0000      	Open  	;
 P-2327          	O-AV-713        	J-179           	96.3700     	12.0000     	100.0000    	0.0000      	Open  	;
 P-2328          	O-AV-714        	J-179           	241.9190    	6.0000      	100.0000    	0.0000      	Open  	;
 P-2329          	J-1449          	J-2             	229.4600    	6.0000      	100.0000    	0.0000      	Open  	;
 P-233           	J-312           	I-AV-186        	913.6900    	6.0000      	100.0000    	0.0000      	Open  	;
 P-2330          	O-AV-716        	J-144           	430.7500    	10.0000     	100.0000    	0.0000      	Open  	;
 P-2331          	O-AV-717        	J-919           	116.4890    	6.0000      	140.0000    	0.0000      	Open  	;
 P-2332          	O-AV-718        	J-616           	279.0590    	6.0000      	140.0000    	0.0000      	Open  	;
 P-2333          	I-AV-717        	J-884           	288.2900    	6.0000      	140.0000    	0.0000      	Open  	;
 P-2334          	O-AV-720        	J-1141          	296.7300    	6.0000      	100.0000    	0.0000      	Open  	;
 P-2335          	O-AV-721        	J-981           	140.2700    	6.0000      	140.0000    	0.0000      	Open  	;
 P-2336          	O-AV-722        	J-1336          	298.7690    	14.0000     	140.0000    	0.0000      	Open  	;
 P-2337          	J-297           	J-1336          	1601.9200   	14.0000     	140.0000    	0.0000      	Open  	;
 P-234           	J-314           	I-AV-593        	301.7790    	6.0000      	100.0000    	0.0000      	Open  	;
 P-2341          	J-20            	J-100           	457.1600    	10.0000     	100.0000    	0.0000      	Open  	;
 P-2343          	J-21            	O-AV-730        	1106.9390   	10.0000     	100.0000    	0.0000      	Open  	;
 P-2345          	O-AV-731        	J-21            	233.2500    	6.0000      	100.0000    	0.0000      	Open  	;
 P-2347          	O-AV-733        	J-494           	173.3000    	6.0000      	100.0000    	0.0000      	Open  	;
 P-2348          	J-352           	J-102           	461.6090    	6.0000      	100.0000    	0.0000      	Open  	;
 P-2349          	O-AV-735        	J-93            	178.9790    	6.0000      	100.0000    	0.0000      	Open  	;
 P-235           	J-316           	I-AV-579        	126.3600    	6.0000      	100.0000    	0.0000      	Open  	;
 P-2350          	O-AV-736        	J-94            	135.8390    	2.0000      	100.0000    	0.0000      	Open  	;
 P-2351          	O-AV-737        	J-177           	778.0700    	6.0000      	100.0000    	0.0000      	Open  	;
 P-2352          	O-AV-738        	J-96            	123.9400    	6.0000      	100.0000    	0.0000      	Open  	;
 P-2354          	O-AV-740        	J-72            	152.7200    	6.0000      	100.0000    	0.0000      	Open  	;
 P-2355          	J-4             	J-72            	673.3900    	6.0000      	100.0000    	0.0000      	Open  	;
 P-2356          	J-1403          	J-73            	107.9890    	6.0000      	100.0000    	0.0000      	Open  	;
 P-236           	J-279           	J-116           	49.1300     	12.0000     	100.0000    	0.0000      	Open  	;
 P-237           	J-241           	J-284           	76.2500     	2.0000      	140.0000    	0.0000      	Open  	;
 P-238           	J-318           	J-289           	438.2390    	6.0000      	100.0000    	0.0000      	Open  	;
 P-24            	J-43            	I-AV-483        	159.6990    	12.0000     	100.0000    	0.0000      	Open  	;
 P-240           	J-321           	J-275           	89.8090     	6.0000      	100.0000    	0.0000      	Open  	;
 P-241           	J-323           	I-AV-343        	177.7400    	6.0000      	100.0000    	0.0000      	Open  	;
 P-242           	J-324           	J-325           	103.7300    	6.0000      	140.0000    	0.0000      	Open  	;
 P-243           	J-326           	J-1422          	119.8700    	12.0000     	100.0000    	0.0000      	Open  	;
 P-244           	J-327           	J-328           	253.9190    	8.0000      	140.0000    	0.0000      	Open  	;
 P-245           	J-329           	J-330           	311.9890    	6.0000      	100.0000    	0.0000      	Open  	;
 P-246           	J-281           	I-AV-166        	291.6900    	6.0000      	100.0000    	0.0000      	Open  	;
 P-247           	J-331           	J-332           	338.4200    	8.0000      	140.0000    	0.0000      	Open  	;
 P-248           	J-333           	J-334           	647.3900    	2.0000      	100.0000    	0.0000      	Open  	;
 P-249           	J-335           	J-80            	557.3800    	6.0000      	100.0000    	0.0000      	Open  	;
 P-25            	J-45            	I-AV-170        	1087.1800   	6.0000      	100.0000    	0.0000      	Open  	;
 P-250           	J-336           	I-AV-453        	98.9700     	1.0000      	100.0000    	0.0000      	Open  	;
 P-251           	J-338           	I-AV-352        	85.0990     	6.0000      	100.0000    	0.0000      	Open  	;
 P-252           	J-340           	I-AV-85         	85.6100     	6.0000      	100.0000    	0.0000      	Open  	;
 P-253           	J-341           	J-342           	326.3690    	6.0000      	100.0000    	0.0000      	Open  	;
 P-254           	J-343           	I-AV-269        	203.2290    	6.0000      	100.0000    	0.0000      	Open  	;
 P-255           	J-345           	I-AV-604        	1104.2900   	8.0000      	100.0000    	0.0000      	Open  	;
 P-256           	J-346           	J-347           	371.8390    	6.0000      	140.0000    	0.0000      	Open  	;
 P-257           	J-348           	J-1405          	175.5090    	6.0000      	100.0000    	0.0000      	Open  	;
 P-258           	J-350           	J-66            	95.3390     	14.0000     	100.0000    	0.0000      	Open  	;
 P-259           	J-351           	J-262           	62.4500     	12.0000     	140.0000    	0.0000      	Open  	;
 P-26            	J-594           	J-639           	222.0390    	8.0000      	140.0000    	0.0000      	Open  	;
 P-260           	J-262           	J-230           	313.7300    	8.0000      	140.0000    	0.0000      	Open  	;
 P-261           	J-88            	J-81            	221.7700    	6.0000      	100.0000    	0.0000      	Open  	;
 P-263           	J-353           	I-AV-509        	169.7100    	6.0000      	100.0000    	0.0000      	Open  	;
 P-264           	J-354           	J-135           	236.2200    	6.0000      	100.0000    	0.0000      	Open  	;
 P-265           	J-355           	I-AV-641        	2058.4490   	6.0000      	100.0000    	0.0000      	Open  	;
 P-266           	J-356           	J-357           	169.2200    	8.0000      	100.0000    	0.0000      	Open  	;
 P-267           	J-358           	I-AV-417        	131.6790    	12.0000     	140.0000    	0.0000      	Open  	;
 P-268           	J-360           	J-361           	118.9190    	8.0000      	140.0000    	0.0000      	Open  	;
 P-269           	J-259           	I-AV-338        	241.4400    	12.0000     	100.0000    	0.0000      	Open  	;
 P-27            	J-23            	J-46            	735.8590    	6.0000      	100.0000    	0.0000      	Open  	;
 P-270           	J-362           	I-AV-62         	149.3800    	6.0000      	140.0000    	0.0000      	Open  	;
 P-271           	J-364           	J-300           	249.7890    	8.0000      	140.0000    	0.0000      	Open  	;
 P-272           	T-1             	J-365           	48.8800     	12.0000     	140.0000    	0.0000      	Open  	;
 P-273           	J-367           	J-368           	53.2090     	6.0000      	140.0000    	0.0000      	Open  	;
 P-274           	J-369           	J-370           	769.7000    	8.0000      	140.0000    	0.0000      	Open  	;
 P-275           	J-371           	I-AV-145        	253.6790    	6.0000      	100.0000    	0.0000      	Open  	;
 P-276           	J-358           	J-1242          	338.7300    	6.0000      	100.0000    	0.0000      	Open  	;
 P-277           	J-373           	I-AV-429        	231.3300    	2.0000      	100.0000    	0.0000      	Open  	;
 P-278           	J-375           	J-271           	73.4000     	8.0000      	140.0000    	0.0000      	Open  	;
 P-279           	J-263           	J-376           	319.8690    	12.0000     	140.0000    	0.0000      	Open  	;
 P-28            	J-47            	J-48            	1592.3800   	8.0000      	140.0000    	0.0000      	Open  	;
 P-280           	J-377           	J-378           	1802.2190   	12.0000     	100.0000    	0.0000      	Open  	;
 P-282           	J-380           	I-AV-294        	206.0200    	6.0000      	100.0000    	0.0000      	Open  	;
 P-283           	J-203           	J-382           	462.6300    	6.0000      	100.0000    	0.0000      	Open  	;
 P-284           	J-383           	J-365           	127.2900    	12.0000     	140.0000    	0.0000      	Open  	;
 P-285           	J-565           	J-756           	68.7500     	12.0000     	100.0000    	0.0000      	Open  	;
 P-286           	J-286           	J-944           	84.8790     	12.0000     	100.0000    	0.0000      	Open  	;
 P-287           	J-385           	J-1392          	425.1400    	6.0000      	100.0000    	0.0000      	Open  	;
 P-288           	J-387           	J-388           	686.4400    	6.0000      	140.0000    	0.0000      	Open  	;
 P-289           	J-272           	J-389           	94.8890     	6.0000      	140.0000    	0.0000      	Open  	;
 P-29            	J-49            	I-AV-432        	326.9290    	6.0000      	100.0000    	0.0000      	Open  	;
 P-290           	J-390           	J-275           	83.5500     	6.0000      	140.0000    	0.0000      	Open  	;
 P-291           	J-391           	J-1360          	194.4100    	6.0000      	100.0000    	0.0000      	Open  	;
 P-292           	J-393           	J-394           	587.3590    	6.0000      	140.0000    	0.0000      	Open  	;
 P-293           	J-395           	J-396           	678.3590    	8.0000      	100.0000    	0.0000      	Open  	;
 P-294           	J-397           	J-398           	529.9600    	8.0000      	100.0000    	0.0000      	Open  	;
 P-295           	J-399           	J-381           	318.8390    	6.0000      	100.0000    	0.0000      	Open  	;
 P-296           	J-400           	J-401           	232.5200    	6.0000      	140.0000    	0.0000      	Open  	;
 P-297           	J-402           	J-403           	193.2290    	6.0000      	140.0000    	0.0000      	Open  	;
 P-298           	J-404           	I-AV-505        	227.4700    	6.0000      	100.0000    	0.0000      	Open  	;
 P-299           	J-406           	J-407           	62.6190     	12.0000     	140.0000    	0.0000      	Open  	;
 P-3             	J-5             	J-1379          	146.1690    	12.0000     	140.0000    	0.0000      	Open  	;
 P-30            	J-50            	J-38            	397.3290    	6.0000      	150.0000    	0.0000      	Open  	;
 P-300           	J-408           	J-364           	120.7790    	8.0000      	140.0000    	0.0000      	Open  	;
 P-301           	J-409           	J-410           	100.6600    	6.0000      	140.0000    	0.0000      	Open  	;
 P-302           	J-411           	J-388           	406.1490    	12.0000     	140.0000    	0.0000      	Open  	;
 P-303           	J-412           	J-413           	151.9190    	8.0000      	140.0000    	0.0000      	Open  	;
 P-304           	J-382           	I-AV-25         	181.1300    	6.0000      	100.0000    	0.0000      	Open  	;
 P-305           	J-415           	I-AV-27         	233.5000    	6.0000      	100.0000    	0.0000      	Open  	;
 P-306           	J-381           	J-1409          	147.1600    	6.0000      	100.0000    	0.0000      	Open  	;
 P-307           	J-417           	J-418           	792.9290    	6.0000      	100.0000    	0.0000      	Open  	;
 P-308           	J-419           	I-AV-515        	190.6600    	12.0000     	140.0000    	0.0000      	Open  	;
 P-309           	J-421           	J-422           	445.9100    	10.0000     	100.0000    	0.0000      	Open  	;
 P-31            	J-51            	J-52            	38.5600     	6.0000      	100.0000    	0.0000      	Open  	;
 P-310           	J-423           	J-424           	1338.8390   	6.0000      	140.0000    	0.0000      	Open  	;
 P-311           	J-425           	J-368           	159.8300    	12.0000     	100.0000    	0.0000      	Open  	;
 P-312           	J-426           	J-1419          	159.8990    	2.0000      	100.0000    	0.0000      	Open  	;
 P-313           	J-428           	J-429           	284.6400    	6.0000      	140.0000    	0.0000      	Open  	;
 P-314           	O-Pump-2        	J-147           	1639.7500   	18.0000     	100.0000    	0.0000      	Open  	;
 P-315           	J-431           	J-432           	214.4600    	2.0000      	100.0000    	0.0000      	Open  	;
 P-316           	J-433           	J-185           	201.7100    	6.0000      	100.0000    	0.0000      	Open  	;
 P-317           	J-434           	J-435           	177.1390    	6.0000      	100.0000    	0.0000      	Open  	;
 P-318           	J-436           	I-AV-467        	129.8090    	6.0000      	100.0000    	0.0000      	Open  	;
 P-319           	J-437           	J-438           	379.9400    	6.0000      	100.0000    	0.0000      	Open  	;
 P-32            	J-53            	J-17            	146.8600    	18.0000     	100.0000    	0.0000      	Open  	;
 P-320           	J-439           	I-AV-359        	85.9800     	6.0000      	100.0000    	0.0000      	Open  	;
 P-321           	J-290           	J-441           	464.3900    	6.0000      	100.0000    	0.0000      	Open  	;
 P-322           	J-276           	J-442           	1047.0300   	6.0000      	100.0000    	0.0000      	Open  	;
 P-323           	J-443           	J-444           	392.5190    	6.0000      	100.0000    	0.0000      	Open  	;
 P-324           	J-386           	J-445           	205.8200    	8.0000      	100.0000    	0.0000      	Open  	;
 P-325           	J-446           	J-256           	415.8590    	12.0000     	100.0000    	0.0000      	Open  	;
 P-326           	J-447           	J-448           	551.2000    	6.0000      	100.0000    	0.0000      	Open  	;
 P-327           	J-449           	J-450           	176.6790    	6.0000      	100.0000    	0.0000      	Open  	;
 P-328           	J-266           	J-1426          	187.4790    	6.0000      	100.0000    	0.0000      	Open  	;
 P-329           	J-309           	J-451           	84.2390     	8.0000      	100.0000    	0.0000      	Open  	;
 P-33            	J-7             	J-47            	213.6790    	6.0000      	100.0000    	0.0000      	Open  	;
 P-330           	J-452           	I-AV-109        	254.3300    	6.0000      	100.0000    	0.0000      	Open  	;
 P-331           	J-454           	J-452           	554.4400    	6.0000      	100.0000    	0.0000      	Open  	;
 P-332           	J-455           	J-456           	297.2200    	6.0000      	140.0000    	0.0000      	Open  	;
 P-333           	J-457           	I-AV-718        	188.7890    	6.0000      	140.0000    	0.0000      	Open  	;
 P-334           	J-453           	J-459           	779.5200    	6.0000      	100.0000    	0.0000      	Open  	;
 P-336           	J-462           	I-AV-94         	141.7500    	6.0000      	100.0000    	0.0000      	Open  	;
 P-337           	J-464           	I-AV-89         	81.4300     	6.0000      	100.0000    	0.0000      	Open  	;
 P-338           	J-466           	J-467           	162.0700    	1.0000      	100.0000    	0.0000      	Open  	;
 P-339           	J-461           	I-AV-421        	158.5000    	6.0000      	100.0000    	0.0000      	Open  	;
 P-34            	J-50            	J-54            	1070.4690   	6.0000      	100.0000    	0.0000      	Open  	;
 P-340           	J-469           	J-470           	556.5490    	6.0000      	100.0000    	0.0000      	Open  	;
 P-341           	J-471           	J-146           	444.9700    	12.0000     	140.0000    	0.0000      	Open  	;
 P-342           	J-401           	J-473           	142.4290    	6.0000      	140.0000    	0.0000      	Open  	;
 P-343           	J-474           	J-475           	535.0800    	12.0000     	100.0000    	0.0000      	Open  	;
 P-344           	J-476           	J-477           	377.5000    	6.0000      	140.0000    	0.0000      	Open  	;
 P-345           	J-478           	J-479           	278.4800    	6.0000      	140.0000    	0.0000      	Open  	;
 P-346           	J-480           	J-481           	374.4800    	8.0000      	140.0000    	0.0000      	Open  	;
 P-347           	J-482           	J-483           	324.5890    	8.0000      	100.0000    	0.0000      	Open  	;
 P-348           	J-363           	J-484           	444.1090    	6.0000      	100.0000    	0.0000      	Open  	;
 P-349           	J-485           	J-486           	257.8200    	12.0000     	100.0000    	0.0000      	Open  	;
 P-35            	J-6             	I-AV-171        	207.9400    	6.0000      	100.0000    	0.0000      	Open  	;
 P-350           	J-487           	J-273           	346.9400    	6.0000      	140.0000    	0.0000      	Open  	;
 P-351           	J-488           	I-AV-436        	105.5190    	2.0000      	100.0000    	0.0000      	Open  	;
 P-352           	J-480           	J-490           	138.6300    	8.0000      	140.0000    	0.0000      	Open  	;
 P-353           	J-491           	J-1265          	608.1590    	12.0000     	100.0000    	0.0000      	Open  	;
 P-354           	J-376           	J-411           	345.9200    	12.0000     	140.0000    	0.0000      	Open  	;
 P-355           	J-493           	I-AV-624        	98.3890     	8.0000      	100.0000    	0.0000      	Open  	;
 P-356           	J-83            	I-AV-733        	157.8390    	6.0000      	100.0000    	0.0000      	Open  	;
 P-357           	J-495           	J-889           	185.1390    	6.0000      	140.0000    	0.0000      	Open  	;
 P-358           	J-497           	J-498           	225.0390    	6.0000      	100.0000    	0.0000      	Open  	;
 P-359           	J-499           	J-500           	230.7500    	8.0000      	100.0000    	0.0000      	Open  	;
 P-36            	J-56            	J-57            	194.7400    	18.0000     	100.0000    	0.0000      	Open  	;
 P-360           	J-1327          	I-AV-398        	203.9490    	6.0000      	100.0000    	0.0000      	Open  	;
 P-361           	J-503           	J-394           	699.2390    	6.0000      	100.0000    	0.0000      	Open  	;
 P-362           	J-300           	J-504           	263.7300    	8.0000      	140.0000    	0.0000      	Open  	;
 P-363           	J-233           	J-264           	343.4400    	6.0000      	140.0000    	0.0000      	Open  	;
 P-364           	J-505           	J-274           	99.3790     	8.0000      	140.0000    	0.0000      	Open  	;
 P-365           	J-298           	J-402           	317.4500    	6.0000      	140.0000    	0.0000      	Open  	;
 P-366           	J-506           	I-AV-660        	466.4400    	12.0000     	140.0000    	0.0000      	Open  	;
 P-367           	J-232           	J-264           	138.3090    	6.0000      	140.0000    	0.0000      	Open  	;
 P-368           	J-452           	I-AV-110        	95.3490     	6.0000      	100.0000    	0.0000      	Open  	;
 P-369           	J-508           	J-509           	97.0990     	8.0000      	140.0000    	0.0000      	Open  	;
 P-37            	J-58            	J-59            	240.4900    	6.0000      	100.0000    	0.0000      	Open  	;
 P-370           	J-510           	J-387           	356.1300    	6.0000      	140.0000    	0.0000      	Open  	;
 P-371           	J-511           	J-512           	388.7990    	8.0000      	140.0000    	0.0000      	Open  	;
 P-372           	J-216           	J-384           	131.5500    	8.0000      	150.0000    	0.0000      	Open  	;
 P-373           	J-327           	J-515           	87.5690     	8.0000      	140.0000    	0.0000      	Open  	;
 P-374           	J-95            	J-3             	120.4700    	6.0000      	100.0000    	0.0000      	Open  	;
 P-376           	J-518           	I-AV-613        	146.1390    	6.0000      	100.0000    	0.0000      	Open  	;
 P-377           	J-520           	J-521           	1131.8100   	12.0000     	140.0000    	0.0000      	Open  	;
 P-378           	J-522           	J-511           	174.8690    	8.0000      	140.0000    	0.0000      	Open  	;
 P-379           	J-523           	J-423           	1183.5790   	6.0000      	140.0000    	0.0000      	Open  	;
 P-38            	J-61            	J-1403          	114.6800    	6.0000      	100.0000    	0.0000      	Open  	;
 P-380           	J-401           	J-524           	289.5400    	6.0000      	140.0000    	0.0000      	Open  	;
 P-381           	J-525           	J-526           	1614.0690   	6.0000      	140.0000    	0.0000      	Open  	;
 P-382           	J-527           	I-AV-138        	277.7990    	12.0000     	140.0000    	0.0000      	Open  	;
 P-383           	J-298           	J-409           	670.4600    	6.0000      	140.0000    	0.0000      	Open  	;
 P-384           	J-529           	T-3             	298.2900    	12.0000     	140.0000    	0.0000      	Open  	;
 P-385           	J-394           	J-531           	563.5200    	6.0000      	100.0000    	0.0000      	Open  	;
 P-386           	J-532           	J-533           	587.5800    	8.0000      	140.0000    	0.0000      	Open  	;
 P-387           	J-534           	I-AV-472        	264.3390    	6.0000      	100.0000    	0.0000      	Open  	;
 P-388           	J-301           	J-364           	1053.6400   	8.0000      	140.0000    	0.0000      	Open  	;
 P-389           	J-536           	J-537           	76.2390     	12.0000     	100.0000    	0.0000      	Open  	;
 P-39            	J-62            	J-63            	277.5400    	12.0000     	100.0000    	0.0000      	Open  	;
 P-390           	J-538           	J-539           	127.8700    	6.0000      	140.0000    	0.0000      	Open  	;
 P-391           	J-422           	I-AV-611        	169.5800    	12.0000     	100.0000    	0.0000      	Open  	;
 P-392           	J-540           	J-541           	149.6900    	6.0000      	100.0000    	0.0000      	Open  	;
 P-393           	J-542           	I-AV-454        	117.3600    	2.0000      	140.0000    	0.0000      	Open  	;
 P-394           	J-544           	J-457           	383.0000    	6.0000      	140.0000    	0.0000      	Open  	;
 P-395           	J-422           	I-AV-622        	134.2790    	12.0000     	100.0000    	0.0000      	Open  	;
 P-396           	J-546           	J-480           	820.8590    	8.0000      	140.0000    	0.0000      	Open  	;
 P-397           	J-1328          	J-372           	297.6400    	6.0000      	100.0000    	0.0000      	Open  	;
 P-398           	J-549           	J-550           	356.3990    	8.0000      	100.0000    	0.0000      	Open  	;
 P-399           	J-551           	J-552           	349.8200    	12.0000     	140.0000    	0.0000      	Open  	;
 P-4             	J-7             	J-8             	168.9700    	8.0000      	140.0000    	0.0000      	Open  	;
 P-40            	J-64            	J-65            	58.4090     	12.0000     	100.0000    	0.0000      	Open  	;
 P-400           	J-553           	J-554           	74.8190     	6.0000      	100.0000    	0.0000      	Open  	;
 P-401           	J-373           	J-1309          	131.9600    	6.0000      	140.0000    	0.0000      	Open  	;
 P-402           	J-388           	J-510           	794.5200    	6.0000      	140.0000    	0.0000      	Open  	;
 P-403           	J-251           	I-AV-342        	327.2990    	6.0000      	100.0000    	0.0000      	Open  	;
 P-404           	J-1297          	I-AV-361        	118.8790    	6.0000      	100.0000    	0.0000      	Open  	;
 P-405           	J-558           	I-AV-129        	1077.5600   	8.0000      	140.0000    	0.0000      	Open  	;
 P-406           	J-181           	J-19            	129.2400    	6.0000      	100.0000    	0.0000      	Open  	;
 P-407           	J-560           	J-561           	383.6300    	6.0000      	140.0000    	0.0000      	Open  	;
 P-408           	J-562           	J-400           	210.9700    	6.0000      	140.0000    	0.0000      	Open  	;
 P-409           	J-563           	J-363           	326.1190    	6.0000      	100.0000    	0.0000      	Open  	;
 P-41            	J-66            	J-201           	157.2790    	18.0000     	140.0000    	0.0000      	Open  	;
 P-410           	J-116           	I-AV-322        	141.6190    	6.0000      	140.0000    	0.0000      	Open  	;
 P-411           	J-366           	I-AV-416        	883.9290    	12.0000     	100.0000    	0.0000      	Open  	;
 P-412           	J-564           	J-369           	240.5500    	8.0000      	140.0000    	0.0000      	Open  	;
 P-413           	J-616           	J-565           	425.2090    	6.0000      	140.0000    	0.0000      	Open  	;
 P-414           	J-567           	I-AV-243        	284.9800    	6.0000      	100.0000    	0.0000      	Open  	;
 P-415           	J-60            	J-111           	60.9500     	6.0000      	100.0000    	0.0000      	Open  	;
 P-416           	J-568           	J-405           	474.1300    	6.0000      	100.0000    	0.0000      	Open  	;
 P-417           	J-569           	J-570           	236.9400    	6.0000      	140.0000    	0.0000      	Open  	;
 P-418           	J-423           	J-571           	642.2500    	6.0000      	140.0000    	0.0000      	Open  	;
 P-419           	J-572           	J-573           	840.8800    	12.0000     	100.0000    	0.0000      	Open  	;
 P-42            	J-68            	I-AV-254        	204.0800    	6.0000      	100.0000    	0.0000      	Open  	;
 P-420           	J-574           	J-458           	115.6500    	12.0000     	100.0000    	0.0000      	Open  	;
 P-422           	J-575           	I-AV-201        	200.0090    	6.0000      	100.0000    	0.0000      	Open  	;
 P-423           	J-576           	I-AV-130        	474.5100    	12.0000     	140.0000    	0.0000      	Open  	;
 P-424           	J-577           	J-578           	669.1900    	8.0000      	100.0000    	0.0000      	Open  	;
 P-425           	J-579           	J-580           	187.1990    	6.0000      	140.0000    	0.0000      	Open  	;
 P-426           	J-581           	I-AV-600        	943.5700    	12.0000     	100.0000    	0.0000      	Open  	;
 P-427           	J-582           	J-529           	100.2600    	12.0000     	100.0000    	0.0000      	Open  	;
 P-428           	J-583           	J-202           	244.9400    	2.0000      	100.0000    	0.0000      	Open  	;
 P-429           	J-140           	I-AV-22         	97.4300     	6.0000      	100.0000    	0.0000      	Open  	;
 P-43            	J-69            	J-70            	57.9300     	12.0000     	100.0000    	0.0000      	Open  	;
 P-430           	J-586           	I-AV-691        	862.1790    	12.0000     	100.0000    	0.0000      	Open  	;
 P-431           	J-588           	I-AV-495        	230.8690    	6.0000      	100.0000    	0.0000      	Open  	;
 P-432           	J-305           	J-590           	538.7100    	8.0000      	140.0000    	0.0000      	Open  	;
 P-433           	J-505           	J-591           	378.2390    	6.0000      	140.0000    	0.0000      	Open  	;
 P-434           	J-378           	J-592           	46.8400     	12.0000     	100.0000    	0.0000      	Open  	;
 P-435           	J-593           	J-293           	291.8590    	6.0000      	100.0000    	0.0000      	Open  	;
 P-436           	J-595           	J-602           	325.8500    	6.0000      	140.0000    	0.0000      	Open  	;
 P-437           	J-317           	I-AV-390        	198.7700    	6.0000      	100.0000    	0.0000      	Open  	;
 P-438           	J-597           	I-AV-493        	242.9100    	6.0000      	100.0000    	0.0000      	Open  	;
 P-439           	J-599           	I-AV-532        	277.1400    	8.0000      	140.0000    	0.0000      	Open  	;
 P-44            	J-65            	J-70            	116.5890    	12.0000     	100.0000    	0.0000      	Open  	;
 P-441           	J-1329          	J-1359          	203.0090    	12.0000     	100.0000    	0.0000      	Open  	;
 P-442           	J-275           	J-603           	317.6090    	6.0000      	100.0000    	0.0000      	Open  	;
 P-444           	J-606           	J-607           	133.0890    	8.0000      	140.0000    	0.0000      	Open  	;
 P-445           	J-608           	J-609           	292.1000    	6.0000      	140.0000    	0.0000      	Open  	;
 P-446           	J-610           	J-1364          	156.1690    	8.0000      	140.0000    	0.0000      	Open  	;
 P-447           	J-611           	I-AV-257        	266.2390    	6.0000      	100.0000    	0.0000      	Open  	;
 P-449           	J-410           	J-402           	589.9400    	6.0000      	140.0000    	0.0000      	Open  	;
 P-45            	J-71            	J-72            	207.8200    	6.0000      	100.0000    	0.0000      	Open  	;
 P-450           	J-408           	J-614           	587.9400    	8.0000      	140.0000    	0.0000      	Open  	;
 P-451           	J-615           	I-AV-419        	300.9400    	6.0000      	140.0000    	0.0000      	Open  	;
 P-452           	J-743           	I-AV-679        	2321.3600   	18.0000     	100.0000    	0.0000      	Open  	;
 P-453           	J-479           	J-617           	360.8390    	6.0000      	140.0000    	0.0000      	Open  	;
 P-454           	J-618           	J-149           	326.4100    	6.0000      	100.0000    	0.0000      	Open  	;
 P-455           	J-619           	J-620           	433.3990    	6.0000      	100.0000    	0.0000      	Open  	;
 P-456           	J-160           	J-567           	790.3490    	6.0000      	100.0000    	0.0000      	Open  	;
 P-457           	J-282           	J-280           	314.0400    	6.0000      	100.0000    	0.0000      	Open  	;
 P-458           	J-411           	J-238           	1440.4590   	12.0000     	140.0000    	0.0000      	Open  	;
 P-459           	J-371           	I-AV-147        	274.4400    	8.0000      	100.0000    	0.0000      	Open  	;
 P-46            	J-73            	J-71            	55.1390     	6.0000      	100.0000    	0.0000      	Open  	;
 P-460           	J-176           	J-214           	267.6490    	6.0000      	100.0000    	0.0000      	Open  	;
 P-461           	J-622           	I-AV-405        	107.1200    	6.0000      	100.0000    	0.0000      	Open  	;
 P-462           	J-1063          	I-AV-528        	1091.4590   	12.0000     	100.0000    	0.0000      	Open  	;
 P-463           	J-617           	J-625           	600.6900    	6.0000      	140.0000    	0.0000      	Open  	;
 P-464           	J-626           	I-AV-423        	66.3600     	8.0000      	100.0000    	0.0000      	Open  	;
 P-465           	J-257           	J-628           	56.2000     	8.0000      	100.0000    	0.0000      	Open  	;
 P-466           	J-629           	J-630           	718.2600    	10.0000     	100.0000    	0.0000      	Open  	;
 P-467           	J-1330          	J-662           	230.5090    	12.0000     	100.0000    	0.0000      	Open  	;
 P-468           	J-632           	J-540           	272.6900    	6.0000      	140.0000    	0.0000      	Open  	;
 P-469           	J-573           	J-474           	376.7900    	12.0000     	100.0000    	0.0000      	Open  	;
 P-47            	J-64            	J-74            	50.4500     	18.0000     	140.0000    	0.0000      	Open  	;
 P-470           	J-633           	J-634           	283.7200    	6.0000      	140.0000    	0.0000      	Open  	;
 P-471           	J-635           	J-636           	229.9900    	6.0000      	140.0000    	0.0000      	Open  	;
 P-472           	J-325           	I-AV-406        	114.0690    	6.0000      	100.0000    	0.0000      	Open  	;
 P-473           	J-638           	J-1376          	391.2690    	2.0000      	140.0000    	0.0000      	Open  	;
 P-474           	J-639           	J-640           	656.4090    	8.0000      	140.0000    	0.0000      	Open  	;
 P-475           	J-641           	J-1261          	230.7200    	6.0000      	100.0000    	0.0000      	Open  	;
 P-476           	J-630           	J-421           	193.2500    	10.0000     	100.0000    	0.0000      	Open  	;
 P-477           	J-208           	J-476           	192.0000    	6.0000      	140.0000    	0.0000      	Open  	;
 P-478           	J-643           	J-146           	182.1900    	6.0000      	140.0000    	0.0000      	Open  	;
 P-479           	J-644           	J-645           	109.4100    	6.0000      	140.0000    	0.0000      	Open  	;
 P-48            	J-75            	J-76            	80.7790     	10.0000     	100.0000    	0.0000      	Open  	;
 P-480           	J-646           	I-AV-61         	984.2290    	6.0000      	100.0000    	0.0000      	Open  	;
 P-481           	J-602           	J-791           	922.2290    	12.0000     	140.0000    	0.0000      	Open  	;
 P-482           	J-648           	I-AV-341        	208.5290    	12.0000     	100.0000    	0.0000      	Open  	;
 P-483           	J-649           	J-327           	415.1000    	8.0000      	140.0000    	0.0000      	Open  	;
 P-484           	J-650           	J-651           	642.9290    	8.0000      	100.0000    	0.0000      	Open  	;
 P-485           	J-652           	I-AV-256        	164.2200    	6.0000      	100.0000    	0.0000      	Open  	;
 P-486           	J-606           	J-260           	436.2900    	18.0000     	140.0000    	0.0000      	Open  	;
 P-487           	J-260           	J-654           	124.6900    	8.0000      	140.0000    	0.0000      	Open  	;
 P-488           	J-571           	I-AV-635        	174.9190    	8.0000      	140.0000    	0.0000      	Open  	;
 P-489           	J-508           	J-256           	127.3000    	8.0000      	140.0000    	0.0000      	Open  	;
 P-49            	J-57            	J-124           	370.1900    	18.0000     	100.0000    	0.0000      	Open  	;
 P-490           	J-340           	J-309           	331.7300    	8.0000      	100.0000    	0.0000      	Open  	;
 P-491           	J-656           	J-657           	354.0290    	6.0000      	140.0000    	0.0000      	Open  	;
 P-492           	J-658           	I-AV-155        	109.3600    	6.0000      	140.0000    	0.0000      	Open  	;
 P-494           	J-662           	I-AV-404        	225.5200    	12.0000     	100.0000    	0.0000      	Open  	;
 P-495           	J-663           	I-AV-146        	191.2500    	6.0000      	140.0000    	0.0000      	Open  	;
 P-496           	J-665           	J-1433          	180.7500    	6.0000      	100.0000    	0.0000      	Open  	;
 P-497           	J-666           	I-AV-597        	179.2700    	8.0000      	100.0000    	0.0000      	Open  	;
 P-498           	J-668           	I-AV-409        	86.9190     	12.0000     	140.0000    	0.0000      	Open  	;
 P-499           	J-669           	J-589           	393.9200    	6.0000      	100.0000    	0.0000      	Open  	;
 P-5             	J-9             	I-AV-26         	252.5890    	12.0000     	100.0000    	0.0000      	Open  	;
 P-50            	J-36            	J-168           	372.0400    	12.0000     	100.0000    	0.0000      	Open  	;
 P-500           	J-399           	J-85            	93.3300     	6.0000      	100.0000    	0.0000      	Open  	;
 P-501           	J-657           	J-650           	246.4600    	8.0000      	140.0000    	0.0000      	Open  	;
 P-502           	J-670           	J-608           	490.3090    	6.0000      	140.0000    	0.0000      	Open  	;
 P-503           	J-671           	J-672           	809.2890    	6.0000      	140.0000    	0.0000      	Open  	;
 P-504           	J-673           	J-674           	199.8300    	8.0000      	140.0000    	0.0000      	Open  	;
 P-505           	J-1008          	I-AV-302        	265.3800    	12.0000     	100.0000    	0.0000      	Open  	;
 P-506           	J-199           	I-AV-526        	314.4100    	6.0000      	100.0000    	0.0000      	Open  	;
 P-507           	J-675           	J-676           	75.0690     	6.0000      	100.0000    	0.0000      	Open  	;
 P-508           	J-677           	I-AV-537        	271.5700    	6.0000      	100.0000    	0.0000      	Open  	;
 P-509           	J-679           	J-680           	653.2000    	8.0000      	140.0000    	0.0000      	Open  	;
 P-51            	J-1373          	J-747           	165.6990    	6.0000      	100.0000    	0.0000      	Open  	;
 P-510           	J-681           	J-1448          	167.6600    	2.0000      	100.0000    	0.0000      	Open  	;
 P-511           	J-682           	J-683           	175.6190    	6.0000      	100.0000    	0.0000      	Open  	;
 P-512           	J-666           	J-244           	182.5090    	6.0000      	100.0000    	0.0000      	Open  	;
 P-513           	J-1331          	I-AV-371        	340.4290    	6.0000      	100.0000    	0.0000      	Open  	;
 P-514           	J-686           	J-687           	94.6600     	6.0000      	100.0000    	0.0000      	Open  	;
 P-515           	J-688           	J-689           	568.2390    	6.0000      	140.0000    	0.0000      	Open  	;
 P-516           	J-441           	I-AV-105        	161.9290    	6.0000      	100.0000    	0.0000      	Open  	;
 P-517           	J-691           	J-689           	505.8990    	6.0000      	140.0000    	0.0000      	Open  	;
 P-518           	J-692           	J-254           	112.1690    	1.0000      	100.0000    	0.0000      	Open  	;
 P-519           	J-1372          	I-AV-682        	2059.2900   	18.0000     	100.0000    	0.0000      	Open  	;
 P-52            	J-81            	J-82            	491.5490    	2.0000      	100.0000    	0.0000      	Open  	;
 P-520           	J-465           	J-444           	115.8190    	6.0000      	100.0000    	0.0000      	Open  	;
 P-521           	J-645           	I-AV-153        	147.2290    	6.0000      	140.0000    	0.0000      	Open  	;
 P-522           	J-694           	J-695           	430.4400    	6.0000      	100.0000    	0.0000      	Open  	;
 P-523           	J-696           	J-697           	231.8390    	14.0000     	100.0000    	0.0000      	Open  	;
 P-525           	J-700           	J-323           	626.5200    	6.0000      	100.0000    	0.0000      	Open  	;
 P-526           	J-55            	J-702           	230.0590    	6.0000      	100.0000    	0.0000      	Open  	;
 P-527           	J-339           	J-1437          	103.0500    	6.0000      	100.0000    	0.0000      	Open  	;
 P-528           	J-703           	J-152           	262.8900    	6.0000      	100.0000    	0.0000      	Open  	;
 P-529           	J-438           	I-AV-100        	143.6190    	6.0000      	100.0000    	0.0000      	Open  	;
 P-53            	J-616           	J-458           	82.5890     	6.0000      	140.0000    	0.0000      	Open  	;
 P-530           	J-295           	J-290           	408.6400    	6.0000      	100.0000    	0.0000      	Open  	;
 P-532           	J-705           	I-AV-510        	420.3200    	6.0000      	100.0000    	0.0000      	Open  	;
 P-533           	J-390           	J-659           	180.8200    	6.0000      	140.0000    	0.0000      	Open  	;
 P-534           	J-706           	J-707           	139.0000    	8.0000      	100.0000    	0.0000      	Open  	;
 P-535           	J-708           	J-682           	288.9800    	6.0000      	100.0000    	0.0000      	Open  	;
 P-537           	J-710           	J-711           	1775.7390   	18.0000     	140.0000    	0.0000      	Open  	;
 P-538           	J-269           	J-408           	98.8890     	8.0000      	140.0000    	0.0000      	Open  	;
 P-539           	J-712           	I-AV-209        	479.9290    	6.0000      	100.0000    	0.0000      	Open  	;
 P-54            	J-85            	I-AV-291        	144.5390    	6.0000      	100.0000    	0.0000      	Open  	;
 P-540           	J-713           	J-714           	156.2890    	6.0000      	140.0000    	0.0000      	Open  	;
 P-541           	J-715           	J-553           	985.5800    	6.0000      	140.0000    	0.0000      	Open  	;
 P-542           	J-716           	I-AV-246        	165.7200    	14.0000     	100.0000    	0.0000      	Open  	;
 P-543           	J-717           	J-1393          	144.9900    	6.0000      	100.0000    	0.0000      	Open  	;
 P-544           	J-555           	I-AV-268        	123.6800    	6.0000      	140.0000    	0.0000      	Open  	;
 P-545           	J-719           	J-375           	123.7200    	8.0000      	140.0000    	0.0000      	Open  	;
 P-546           	J-720           	J-532           	971.7500    	6.0000      	100.0000    	0.0000      	Open  	;
 P-547           	J-357           	J-721           	324.0700    	18.0000     	140.0000    	0.0000      	Open  	;
 P-548           	J-555           	I-AV-235        	520.9400    	6.0000      	100.0000    	0.0000      	Open  	;
 P-549           	J-722           	J-367           	140.9900    	6.0000      	100.0000    	0.0000      	Open  	;
 P-55            	J-87            	J-43            	339.1900    	12.0000     	100.0000    	0.0000      	Open  	;
 P-550           	J-723           	J-724           	84.2900     	6.0000      	100.0000    	0.0000      	Open  	;
 P-551           	J-248           	J-725           	318.8690    	12.0000     	100.0000    	0.0000      	Open  	;
 P-552           	J-726           	J-727           	457.1700    	6.0000      	140.0000    	0.0000      	Open  	;
 P-553           	J-307           	J-193           	211.7100    	6.0000      	100.0000    	0.0000      	Open  	;
 P-554           	J-728           	I-AV-204        	90.8790     	12.0000     	100.0000    	0.0000      	Open  	;
 P-555           	J-504           	J-729           	474.2900    	8.0000      	140.0000    	0.0000      	Open  	;
 P-556           	J-569           	I-AV-212        	629.4290    	6.0000      	100.0000    	0.0000      	Open  	;
 P-557           	J-730           	J-183           	182.3690    	6.0000      	100.0000    	0.0000      	Open  	;
 P-558           	J-731           	J-732           	269.2790    	12.0000     	140.0000    	0.0000      	Open  	;
 P-559           	J-109           	J-176           	233.6100    	6.0000      	100.0000    	0.0000      	Open  	;
 P-56            	J-1453          	I-Pump-5        	1596.7500   	18.0000     	100.0000    	0.0000      	Open  	;
 P-560           	J-435           	I-AV-590        	165.4100    	2.0000      	100.0000    	0.0000      	Open  	;
 P-562           	J-440           	J-392           	198.2290    	6.0000      	100.0000    	0.0000      	Open  	;
 P-563           	J-361           	J-734           	379.5790    	6.0000      	140.0000    	0.0000      	Open  	;
 P-565           	J-564           	J-737           	203.9100    	8.0000      	140.0000    	0.0000      	Open  	;
 P-566           	J-662           	I-AV-403        	95.4100     	6.0000      	100.0000    	0.0000      	Open  	;
 P-567           	J-739           	I-AV-112        	183.0800    	2.0000      	100.0000    	0.0000      	Open  	;
 P-569           	J-233           	J-742           	335.7500    	8.0000      	140.0000    	0.0000      	Open  	;
 P-57            	J-42            	J-90            	60.7790     	6.0000      	150.0000    	0.0000      	Open  	;
 P-570           	J-198           	I-AV-705        	2343.5800   	18.0000     	100.0000    	0.0000      	Open  	;
 P-571           	J-306           	J-744           	419.5790    	6.0000      	100.0000    	0.0000      	Open  	;
 P-572           	J-745           	J-746           	753.0100    	6.0000      	140.0000    	0.0000      	Open  	;
 P-573           	J-1332          	J-1357          	189.8890    	12.0000     	100.0000    	0.0000      	Open  	;
 P-574           	J-675           	J-749           	248.9900    	6.0000      	100.0000    	0.0000      	Open  	;
 P-575           	J-750           	J-751           	93.2600     	6.0000      	100.0000    	0.0000      	Open  	;
 P-576           	J-339           	J-724           	30.0590     	6.0000      	100.0000    	0.0000      	Open  	;
 P-577           	J-752           	I-AV-238        	323.9200    	6.0000      	100.0000    	0.0000      	Open  	;
 P-578           	J-31            	I-AV-442        	215.5000    	10.0000     	100.0000    	0.0000      	Open  	;
 P-579           	J-632           	T-3             	95.4190     	12.0000     	100.0000    	0.0000      	Open  	;
 P-58            	J-91            	J-92            	6.6700      	3.0000      	100.0000    	0.0000      	Open  	;
 P-580           	J-470           	J-709           	102.3700    	6.0000      	100.0000    	0.0000      	Open  	;
 P-581           	J-634           	J-753           	143.8090    	6.0000      	140.0000    	0.0000      	Open  	;
 P-582           	J-754           	I-AV-152        	105.0100    	6.0000      	140.0000    	0.0000      	Open  	;
 P-583           	J-251           	J-491           	282.2000    	12.0000     	100.0000    	0.0000      	Open  	;
 P-584           	J-572           	I-AV-583        	176.8090    	8.0000      	100.0000    	0.0000      	Open  	;
 P-585           	J-545           	J-565           	107.1100    	12.0000     	100.0000    	0.0000      	Open  	;
 P-586           	J-579           	J-635           	123.4490    	8.0000      	140.0000    	0.0000      	Open  	;
 P-587           	J-757           	J-758           	191.5590    	6.0000      	140.0000    	0.0000      	Open  	;
 P-588           	J-639           	J-679           	203.1600    	8.0000      	140.0000    	0.0000      	Open  	;
 P-589           	J-759           	I-AV-469        	235.0700    	2.0000      	100.0000    	0.0000      	Open  	;
 P-59            	J-93            	J-94            	217.4790    	6.0000      	150.0000    	0.0000      	Open  	;
 P-590           	J-761           	J-429           	252.3090    	6.0000      	140.0000    	0.0000      	Open  	;
 P-591           	J-762           	J-763           	752.2290    	6.0000      	100.0000    	0.0000      	Open  	;
 P-592           	J-764           	J-1385          	201.4600    	6.0000      	100.0000    	0.0000      	Open  	;
 P-594           	J-282           	J-393           	461.3690    	6.0000      	140.0000    	0.0000      	Open  	;
 P-595           	J-342           	J-736           	260.3390    	6.0000      	100.0000    	0.0000      	Open  	;
 P-596           	J-711           	J-768           	191.7500    	12.0000     	140.0000    	0.0000      	Open  	;
 P-597           	J-769           	J-303           	223.3000    	4.0000      	140.0000    	0.0000      	Open  	;
 P-598           	J-294           	I-AV-108        	296.6490    	6.0000      	100.0000    	0.0000      	Open  	;
 P-599           	J-200           	I-AV-91         	141.6300    	6.0000      	100.0000    	0.0000      	Open  	;
 P-6             	J-1325          	J-1373          	120.4300    	6.0000      	100.0000    	0.0000      	Open  	;
 P-60            	J-93            	J-95            	446.7000    	6.0000      	100.0000    	0.0000      	Open  	;
 P-600           	J-771           	I-AV-609        	102.3000    	8.0000      	140.0000    	0.0000      	Open  	;
 P-601           	J-772           	J-1396          	139.4400    	6.0000      	100.0000    	0.0000      	Open  	;
 P-602           	J-668           	I-AV-407        	152.6600    	12.0000     	140.0000    	0.0000      	Open  	;
 P-603           	J-293           	I-AV-617        	209.6790    	8.0000      	140.0000    	0.0000      	Open  	;
 P-604           	J-625           	J-774           	453.8900    	6.0000      	140.0000    	0.0000      	Open  	;
 P-605           	J-655           	I-AV-634        	141.8090    	8.0000      	140.0000    	0.0000      	Open  	;
 P-606           	J-775           	J-776           	356.0790    	8.0000      	100.0000    	0.0000      	Open  	;
 P-607           	J-1333          	I-AV-363        	200.4600    	6.0000      	100.0000    	0.0000      	Open  	;
 P-608           	J-774           	J-520           	415.0790    	6.0000      	140.0000    	0.0000      	Open  	;
 P-609           	J-777           	I-AV-599        	177.8390    	6.0000      	100.0000    	0.0000      	Open  	;
 P-61            	J-96            	J-97            	176.2200    	6.0000      	100.0000    	0.0000      	Open  	;
 P-612           	J-304           	J-232           	288.8290    	8.0000      	140.0000    	0.0000      	Open  	;
 P-613           	J-476           	J-470           	274.6900    	6.0000      	140.0000    	0.0000      	Open  	;
 P-614           	J-780           	J-1447          	168.2590    	14.0000     	100.0000    	0.0000      	Open  	;
 P-615           	J-756           	I-AV-633        	258.7390    	6.0000      	100.0000    	0.0000      	Open  	;
 P-616           	J-659           	J-782           	49.5900     	6.0000      	140.0000    	0.0000      	Open  	;
 P-617           	J-1334          	I-AV-426        	154.5500    	12.0000     	140.0000    	0.0000      	Open  	;
 P-618           	J-261           	J-783           	154.8990    	12.0000     	140.0000    	0.0000      	Open  	;
 P-619           	J-733           	J-660           	599.5590    	6.0000      	100.0000    	0.0000      	Open  	;
 P-62            	J-90            	J-91            	68.9300     	3.0000      	100.0000    	0.0000      	Open  	;
 P-620           	J-457           	J-421           	298.0700    	6.0000      	140.0000    	0.0000      	Open  	;
 P-621           	J-527           	I-AV-137        	373.4700    	12.0000     	140.0000    	0.0000      	Open  	;
 P-622           	I-Pump-4        	J-1454          	992.6400    	12.0000     	140.0000    	0.0000      	Open  	;
 P-623           	J-776           	J-678           	359.9890    	8.0000      	100.0000    	0.0000      	Open  	;
 P-624           	J-785           	J-510           	98.3300     	6.0000      	140.0000    	0.0000      	Open  	;
 P-626           	J-637           	J-532           	417.7000    	8.0000      	140.0000    	0.0000      	Open  	;
 P-627           	J-223           	J-526           	329.4590    	6.0000      	140.0000    	0.0000      	Open  	;
 P-628           	J-787           	J-788           	254.2100    	6.0000      	140.0000    	0.0000      	Open  	;
 P-629           	J-789           	I-AV-348        	85.3490     	6.0000      	100.0000    	0.0000      	Open  	;
 P-63            	J-41            	J-98            	232.8090    	6.0000      	100.0000    	0.0000      	Open  	;
 P-630           	J-790           	J-210           	330.8990    	6.0000      	100.0000    	0.0000      	Open  	;
 P-631           	J-1335          	I-AV-377        	230.9290    	12.0000     	140.0000    	0.0000      	Open  	;
 P-632           	J-793           	J-794           	41.7090     	6.0000      	140.0000    	0.0000      	Open  	;
 P-633           	J-788           	J-512           	1049.1990   	6.0000      	140.0000    	0.0000      	Open  	;
 P-634           	J-795           	I-AV-388        	443.0400    	10.0000     	100.0000    	0.0000      	Open  	;
 P-635           	J-344           	I-AV-266        	151.0500    	4.0000      	100.0000    	0.0000      	Open  	;
 P-636           	J-797           	J-788           	249.5590    	8.0000      	140.0000    	0.0000      	Open  	;
 P-637           	J-106           	J-798           	85.2900     	10.0000     	100.0000    	0.0000      	Open  	;
 P-638           	J-795           	I-AV-369        	125.2500    	12.0000     	100.0000    	0.0000      	Open  	;
 P-639           	J-799           	I-AV-496        	564.0900    	2.0000      	100.0000    	0.0000      	Open  	;
 P-64            	J-99            	I-AV-740        	316.0100    	6.0000      	100.0000    	0.0000      	Open  	;
 P-640           	J-801           	I-AV-692        	122.2090    	6.0000      	100.0000    	0.0000      	Open  	;
 P-641           	J-635           	J-802           	452.2300    	8.0000      	140.0000    	0.0000      	Open  	;
 P-642           	J-541           	J-632           	218.5200    	12.0000     	100.0000    	0.0000      	Open  	;
 P-643           	J-389           	J-803           	100.0800    	8.0000      	140.0000    	0.0000      	Open  	;
 P-644           	J-792           	I-AV-378        	116.7790    	6.0000      	100.0000    	0.0000      	Open  	;
 P-645           	J-804           	J-805           	275.4590    	6.0000      	140.0000    	0.0000      	Open  	;
 P-646           	J-507           	I-AV-657        	414.1900    	12.0000     	140.0000    	0.0000      	Open  	;
 P-647           	J-806           	J-804           	417.7690    	6.0000      	140.0000    	0.0000      	Open  	;
 P-648           	J-130           	I-AV-694        	265.4590    	12.0000     	100.0000    	0.0000      	Open  	;
 P-649           	J-807           	J-462           	106.0190    	6.0000      	100.0000    	0.0000      	Open  	;
 P-65            	J-1454          	R-2             	1638.1890   	12.0000     	140.0000    	0.0000      	Open  	;
 P-650           	J-491           	J-1145          	152.5890    	12.0000     	100.0000    	0.0000      	Open  	;
 P-651           	J-808           	I-AV-630        	291.3390    	6.0000      	100.0000    	0.0000      	Open  	;
 P-652           	J-810           	J-1092          	58.5490     	6.0000      	140.0000    	0.0000      	Open  	;
 P-653           	J-239           	J-1429          	253.6490    	12.0000     	100.0000    	0.0000      	Open  	;
 P-654           	J-813           	I-AV-525        	492.2300    	6.0000      	100.0000    	0.0000      	Open  	;
 P-655           	J-728           	I-AV-203        	274.1900    	6.0000      	100.0000    	0.0000      	Open  	;
 P-656           	J-589           	J-568           	858.4600    	6.0000      	100.0000    	0.0000      	Open  	;
 P-657           	J-445           	J-396           	360.3200    	6.0000      	100.0000    	0.0000      	Open  	;
 P-658           	J-1035          	J-200           	1131.4590   	12.0000     	100.0000    	0.0000      	Open  	;
 P-659           	J-688           	J-816           	51.6800     	8.0000      	140.0000    	0.0000      	Open  	;
 P-66            	J-59            	J-47            	275.8500    	8.0000      	140.0000    	0.0000      	Open  	;
 P-660           	J-198           	J-1370          	171.1990    	10.0000     	100.0000    	0.0000      	Open  	;
 P-661           	J-818           	J-606           	659.5700    	18.0000     	140.0000    	0.0000      	Open  	;
 P-662           	J-349           	I-AV-198        	172.6790    	6.0000      	100.0000    	0.0000      	Open  	;
 P-663           	J-820           	J-1404          	152.1490    	6.0000      	100.0000    	0.0000      	Open  	;
 P-664           	J-144           	J-1301          	363.3500    	12.0000     	100.0000    	0.0000      	Open  	;
 P-665           	J-507           	J-822           	621.1690    	6.0000      	140.0000    	0.0000      	Open  	;
 P-666           	J-823           	J-773           	488.4890    	6.0000      	100.0000    	0.0000      	Open  	;
 P-667           	J-493           	I-AV-625        	197.6000    	6.0000      	100.0000    	0.0000      	Open  	;
 P-668           	J-500           	J-466           	447.5000    	8.0000      	100.0000    	0.0000      	Open  	;
 P-669           	J-824           	I-AV-206        	134.6790    	6.0000      	100.0000    	0.0000      	Open  	;
 P-67            	J-101           	J-102           	367.8900    	6.0000      	100.0000    	0.0000      	Open  	;
 P-670           	J-604           	J-638           	162.3200    	6.0000      	140.0000    	0.0000      	Open  	;
 P-671           	J-417           	I-AV-465        	192.5700    	6.0000      	140.0000    	0.0000      	Open  	;
 P-672           	J-145           	J-818           	1302.8900   	18.0000     	140.0000    	0.0000      	Open  	;
 P-673           	J-825           	J-772           	169.3000    	3.0000      	100.0000    	0.0000      	Open  	;
 P-674           	J-767           	J-826           	902.2890    	6.0000      	140.0000    	0.0000      	Open  	;
 P-675           	J-827           	J-1391          	195.6900    	6.0000      	100.0000    	0.0000      	Open  	;
 P-676           	J-547           	J-524           	131.6000    	6.0000      	140.0000    	0.0000      	Open  	;
 P-677           	J-818           	J-828           	147.7200    	8.0000      	140.0000    	0.0000      	Open  	;
 P-678           	J-413           	J-741           	376.8690    	8.0000      	140.0000    	0.0000      	Open  	;
 P-679           	J-609           	J-829           	564.0700    	6.0000      	140.0000    	0.0000      	Open  	;
 P-68            	J-79            	J-566           	811.0490    	6.0000      	100.0000    	0.0000      	Open  	;
 P-680           	J-655           	J-830           	317.5000    	6.0000      	140.0000    	0.0000      	Open  	;
 P-681           	J-831           	J-927           	356.9700    	6.0000      	100.0000    	0.0000      	Open  	;
 P-682           	J-833           	J-834           	111.7090    	6.0000      	140.0000    	0.0000      	Open  	;
 P-683           	J-369           	J-351           	467.5190    	8.0000      	140.0000    	0.0000      	Open  	;
 P-684           	O-Pump-5        	I-AV-684        	2465.4190   	18.0000     	100.0000    	0.0000      	Open  	;
 P-685           	J-354           	J-1387          	167.8500    	6.0000      	100.0000    	0.0000      	Open  	;
 P-686           	J-835           	I-AV-174        	183.9100    	6.0000      	100.0000    	0.0000      	Open  	;
 P-687           	J-295           	J-463           	104.9190    	8.0000      	100.0000    	0.0000      	Open  	;
 P-688           	J-703           	I-AV-478        	320.2390    	8.0000      	100.0000    	0.0000      	Open  	;
 P-689           	J-273           	J-424           	371.5490    	6.0000      	140.0000    	0.0000      	Open  	;
 P-69            	J-104           	J-105           	265.4590    	6.0000      	100.0000    	0.0000      	Open  	;
 P-690           	J-396           	J-345           	372.1600    	6.0000      	100.0000    	0.0000      	Open  	;
 P-691           	J-836           	J-1411          	189.9290    	6.0000      	100.0000    	0.0000      	Open  	;
 P-692           	J-837           	J-610           	694.4290    	6.0000      	140.0000    	0.0000      	Open  	;
 P-693           	J-551           	J-726           	217.9900    	6.0000      	140.0000    	0.0000      	Open  	;
 P-694           	J-152           	J-736           	638.7500    	8.0000      	100.0000    	0.0000      	Open  	;
 P-695           	J-1306          	J-613           	104.5590    	12.0000     	140.0000    	0.0000      	Open  	;
 P-696           	J-814           	I-AV-244        	185.1690    	6.0000      	100.0000    	0.0000      	Open  	;
 P-697           	J-839           	J-604           	338.6900    	6.0000      	140.0000    	0.0000      	Open  	;
 P-698           	J-485           	J-1432          	131.5500    	6.0000      	100.0000    	0.0000      	Open  	;
 P-699           	J-841           	J-465           	356.5400    	6.0000      	100.0000    	0.0000      	Open  	;
 P-7             	J-13            	J-14            	2168.1000   	12.0000     	140.0000    	0.0000      	Open  	;
 P-70            	J-106           	J-26            	235.0500    	6.0000      	100.0000    	0.0000      	Open  	;
 P-700           	J-226           	I-AV-530        	94.2790     	6.0000      	100.0000    	0.0000      	Open  	;
 P-701           	J-420           	J-843           	316.6700    	12.0000     	140.0000    	0.0000      	Open  	;
 P-702           	J-674           	J-656           	436.4700    	6.0000      	140.0000    	0.0000      	Open  	;
 P-703           	J-534           	I-AV-473        	150.4790    	6.0000      	100.0000    	0.0000      	Open  	;
 P-704           	J-178           	I-AV-477        	208.6190    	6.0000      	100.0000    	0.0000      	Open  	;
 P-705           	J-846           	J-1012          	75.1200     	12.0000     	100.0000    	0.0000      	Open  	;
 P-707           	J-775           	I-AV-535        	219.9600    	6.0000      	100.0000    	0.0000      	Open  	;
 P-708           	J-851           	I-AV-115        	161.2400    	8.0000      	100.0000    	0.0000      	Open  	;
 P-709           	J-852           	I-AV-334        	298.2090    	6.0000      	100.0000    	0.0000      	Open  	;
 P-71            	J-107           	J-108           	261.0100    	6.0000      	150.0000    	0.0000      	Open  	;
 P-710           	J-135           	I-AV-619        	133.0090    	6.0000      	100.0000    	0.0000      	Open  	;
 P-711           	J-74            	J-1009          	934.2190    	6.0000      	140.0000    	0.0000      	Open  	;
 P-712           	T-2             	J-350           	409.3800    	14.0000     	100.0000    	0.0000      	Open  	;
 P-714           	J-596           	J-626           	398.7300    	8.0000      	100.0000    	0.0000      	Open  	;
 P-715           	J-577           	J-857           	274.5790    	8.0000      	140.0000    	0.0000      	Open  	;
 P-716           	J-858           	I-AV-628        	505.2790    	6.0000      	100.0000    	0.0000      	Open  	;
 P-717           	J-859           	J-564           	972.0300    	8.0000      	140.0000    	0.0000      	Open  	;
 P-718           	J-860           	I-AV-709        	224.9900    	6.0000      	100.0000    	0.0000      	Open  	;
 P-719           	J-861           	J-862           	478.5700    	6.0000      	100.0000    	0.0000      	Open  	;
 P-72            	J-105           	J-109           	84.3490     	6.0000      	100.0000    	0.0000      	Open  	;
 P-720           	J-863           	J-1319          	456.1700    	18.0000     	140.0000    	0.0000      	Open  	;
 P-721           	J-864           	I-AV-357        	317.7500    	14.0000     	100.0000    	0.0000      	Open  	;
 P-722           	J-865           	J-866           	87.4890     	6.0000      	140.0000    	0.0000      	Open  	;
 P-723           	J-867           	J-868           	205.7290    	2.0000      	100.0000    	0.0000      	Open  	;
 P-724           	J-844           	I-AV-470        	233.1490    	6.0000      	100.0000    	0.0000      	Open  	;
 P-725           	J-66            	J-869           	542.5300    	14.0000     	100.0000    	0.0000      	Open  	;
 P-726           	J-870           	J-804           	184.4400    	6.0000      	140.0000    	0.0000      	Open  	;
 P-727           	J-871           	J-231           	262.0290    	8.0000      	140.0000    	0.0000      	Open  	;
 P-728           	J-751           	I-AV-190        	1743.3490   	6.0000      	100.0000    	0.0000      	Open  	;
 P-729           	J-537           	I-AV-40         	508.8290    	12.0000     	100.0000    	0.0000      	Open  	;
 P-73            	J-110           	J-60            	93.6290     	6.0000      	100.0000    	0.0000      	Open  	;
 P-730           	J-711           	I-AV-675        	1347.9200   	18.0000     	140.0000    	0.0000      	Open  	;
 P-731           	J-316           	J-434           	83.9490     	6.0000      	100.0000    	0.0000      	Open  	;
 P-732           	J-481           	J-873           	86.4300     	6.0000      	140.0000    	0.0000      	Open  	;
 P-733           	J-418           	J-1420          	208.9400    	2.0000      	100.0000    	0.0000      	Open  	;
 P-734           	J-875           	J-876           	207.6990    	8.0000      	140.0000    	0.0000      	Open  	;
 P-735           	J-877           	I-AV-160        	171.5090    	6.0000      	100.0000    	0.0000      	Open  	;
 P-736           	J-879           	I-AV-56         	440.2500    	6.0000      	100.0000    	0.0000      	Open  	;
 P-737           	J-436           	I-AV-282        	327.9290    	6.0000      	140.0000    	0.0000      	Open  	;
 P-738           	J-1305          	I-AV-424        	123.3190    	6.0000      	140.0000    	0.0000      	Open  	;
 P-739           	J-881           	J-530           	406.7200    	8.0000      	140.0000    	0.0000      	Open  	;
 P-74            	J-112           	I-AV-701        	179.9790    	8.0000      	100.0000    	0.0000      	Open  	;
 P-740           	J-544           	J-501           	510.8900    	6.0000      	100.0000    	0.0000      	Open  	;
 P-741           	J-1141          	J-144           	380.8090    	12.0000     	100.0000    	0.0000      	Open  	;
 P-742           	J-885           	J-143           	451.6400    	12.0000     	100.0000    	0.0000      	Open  	;
 P-743           	J-886           	J-630           	645.1090    	10.0000     	100.0000    	0.0000      	Open  	;
 P-744           	J-887           	J-785           	67.5690     	6.0000      	140.0000    	0.0000      	Open  	;
 P-745           	J-425           	I-AV-199        	151.1990    	12.0000     	100.0000    	0.0000      	Open  	;
 P-746           	J-461           	J-1305          	89.9490     	6.0000      	140.0000    	0.0000      	Open  	;
 P-747           	J-517           	I-AV-382        	70.0290     	12.0000     	140.0000    	0.0000      	Open  	;
 P-748           	J-359           	J-1306          	225.3200    	12.0000     	140.0000    	0.0000      	Open  	;
 P-749           	J-487           	J-409           	414.0000    	6.0000      	140.0000    	0.0000      	Open  	;
 P-75            	J-114           	I-AV-736        	560.1090    	2.0000      	100.0000    	0.0000      	Open  	;
 P-750           	J-889           	J-305           	240.9400    	8.0000      	140.0000    	0.0000      	Open  	;
 P-752           	J-891           	I-AV-366        	131.8600    	12.0000     	100.0000    	0.0000      	Open  	;
 P-753           	J-845           	J-534           	116.3000    	6.0000      	100.0000    	0.0000      	Open  	;
 P-754           	J-819           	J-868           	703.7700    	6.0000      	100.0000    	0.0000      	Open  	;
 P-755           	J-829           	J-892           	326.9200    	8.0000      	140.0000    	0.0000      	Open  	;
 P-756           	J-819           	J-824           	108.1600    	6.0000      	100.0000    	0.0000      	Open  	;
 P-757           	J-593           	I-AV-618        	165.2890    	6.0000      	100.0000    	0.0000      	Open  	;
 P-758           	J-845           	I-AV-474        	199.1900    	6.0000      	100.0000    	0.0000      	Open  	;
 P-759           	J-331           	J-894           	46.2500     	6.0000      	140.0000    	0.0000      	Open  	;
 P-76            	J-116           	I-AV-321        	128.1100    	12.0000     	100.0000    	0.0000      	Open  	;
 P-760           	J-658           	J-895           	191.4600    	6.0000      	100.0000    	0.0000      	Open  	;
 P-761           	J-896           	J-552           	1024.4100   	12.0000     	140.0000    	0.0000      	Open  	;
 P-762           	J-1308          	I-AV-408        	507.2690    	6.0000      	140.0000    	0.0000      	Open  	;
 P-763           	J-897           	J-898           	160.3890    	4.0000      	140.0000    	0.0000      	Open  	;
 P-764           	J-237           	J-1442          	98.2900     	12.0000     	100.0000    	0.0000      	Open  	;
 P-765           	J-475           	J-252           	1391.1700   	12.0000     	100.0000    	0.0000      	Open  	;
 P-766           	J-899           	J-900           	385.4700    	8.0000      	140.0000    	0.0000      	Open  	;
 P-767           	J-328           	I-AV-636        	177.5500    	8.0000      	140.0000    	0.0000      	Open  	;
 P-768           	J-901           	I-AV-582        	638.6790    	8.0000      	100.0000    	0.0000      	Open  	;
 P-769           	J-902           	J-903           	482.7200    	6.0000      	140.0000    	0.0000      	Open  	;
 P-77            	J-63            	J-117           	273.5490    	12.0000     	100.0000    	0.0000      	Open  	;
 P-770           	J-755           	J-901           	353.7390    	8.0000      	100.0000    	0.0000      	Open  	;
 P-771           	J-542           	I-AV-455        	271.0700    	6.0000      	100.0000    	0.0000      	Open  	;
 P-772           	J-418           	J-905           	868.5590    	6.0000      	100.0000    	0.0000      	Open  	;
 P-773           	J-514           	J-199           	351.5590    	12.0000     	100.0000    	0.0000      	Open  	;
 P-774           	J-521           	J-551           	1000.8900   	12.0000     	140.0000    	0.0000      	Open  	;
 P-775           	J-908           	J-1451          	165.2500    	6.0000      	100.0000    	0.0000      	Open  	;
 P-776           	J-192           	I-AV-355        	108.1900    	6.0000      	100.0000    	0.0000      	Open  	;
 P-777           	J-243           	J-910           	469.4890    	6.0000      	100.0000    	0.0000      	Open  	;
 P-778           	J-911           	J-912           	118.0000    	8.0000      	100.0000    	0.0000      	Open  	;
 P-779           	J-809           	I-AV-631        	239.6900    	8.0000      	100.0000    	0.0000      	Open  	;
 P-78            	J-1455          	R-2             	797.5000    	18.0000     	100.0000    	0.0000      	Open  	;
 P-780           	J-140           	J-1383          	109.6600    	6.0000      	100.0000    	0.0000      	Open  	;
 P-781           	J-913           	I-AV-173        	276.6900    	8.0000      	100.0000    	0.0000      	Open  	;
 P-782           	J-687           	J-451           	581.1500    	6.0000      	100.0000    	0.0000      	Open  	;
 P-783           	J-914           	J-915           	210.2700    	6.0000      	100.0000    	0.0000      	Open  	;
 P-784           	J-1313          	J-224           	103.1390    	6.0000      	100.0000    	0.0000      	Open  	;
 P-785           	J-916           	J-173           	485.3690    	6.0000      	100.0000    	0.0000      	Open  	;
 P-786           	J-917           	J-918           	82.6800     	6.0000      	100.0000    	0.0000      	Open  	;
 P-787           	J-320           	I-AV-195        	109.6200    	12.0000     	100.0000    	0.0000      	Open  	;
 P-788           	J-920           	J-397           	332.7300    	8.0000      	100.0000    	0.0000      	Open  	;
 P-789           	J-713           	J-921           	718.7190    	8.0000      	100.0000    	0.0000      	Open  	;
 P-79            	J-118           	I-AV-703        	249.3390    	6.0000      	100.0000    	0.0000      	Open  	;
 P-790           	J-922           	I-AV-506        	148.8600    	6.0000      	100.0000    	0.0000      	Open  	;
 P-791           	J-924           	J-925           	236.7790    	6.0000      	140.0000    	0.0000      	Open  	;
 P-792           	J-678           	J-909           	543.5000    	8.0000      	100.0000    	0.0000      	Open  	;
 P-793           	J-781           	J-926           	331.3800    	6.0000      	100.0000    	0.0000      	Open  	;
 P-794           	J-927           	J-928           	472.4590    	6.0000      	140.0000    	0.0000      	Open  	;
 P-795           	J-213           	J-430           	166.8390    	6.0000      	100.0000    	0.0000      	Open  	;
 P-797           	J-410           	J-930           	226.1990    	6.0000      	140.0000    	0.0000      	Open  	;
 P-798           	J-856           	J-259           	73.5190     	12.0000     	100.0000    	0.0000      	Open  	;
 P-799           	J-931           	J-932           	3893.5700   	8.0000      	100.0000    	0.0000      	Open  	;
 P-8             	J-15            	J-16            	130.2790    	6.0000      	140.0000    	0.0000      	Open  	;
 P-800           	J-933           	T-4             	263.3990    	12.0000     	140.0000    	0.0000      	Open  	;
 P-801           	J-240           	J-849           	241.2890    	8.0000      	100.0000    	0.0000      	Open  	;
 P-803           	J-376           	J-935           	88.1800     	8.0000      	140.0000    	0.0000      	Open  	;
 P-804           	J-489           	J-468           	593.2890    	6.0000      	100.0000    	0.0000      	Open  	;
 P-805           	J-936           	J-1446          	232.5800    	6.0000      	140.0000    	0.0000      	Open  	;
 P-806           	J-54            	I-AV-444        	447.7300    	6.0000      	100.0000    	0.0000      	Open  	;
 P-807           	J-938           	J-1212          	59.2290     	16.0000     	140.0000    	0.0000      	Open  	;
 P-808           	J-940           	J-811           	461.5400    	6.0000      	140.0000    	0.0000      	Open  	;
 P-809           	J-941           	J-240           	326.8900    	8.0000      	100.0000    	0.0000      	Open  	;
 P-81            	J-88            	J-120           	473.2690    	2.0000      	100.0000    	0.0000      	Open  	;
 P-810           	J-899           	J-1410          	172.3600    	6.0000      	140.0000    	0.0000      	Open  	;
 P-811           	J-610           	J-899           	1163.2600   	8.0000      	140.0000    	0.0000      	Open  	;
 P-812           	J-441           	J-943           	361.2090    	6.0000      	140.0000    	0.0000      	Open  	;
 P-813           	J-430           	J-119           	100.1200    	6.0000      	100.0000    	0.0000      	Open  	;
 P-814           	J-7             	J-513           	98.2690     	6.0000      	100.0000    	0.0000      	Open  	;
 P-815           	J-307           	J-945           	78.2790     	2.0000      	140.0000    	0.0000      	Open  	;
 P-816           	J-946           	J-947           	329.3390    	6.0000      	100.0000    	0.0000      	Open  	;
 P-817           	J-244           	J-858           	196.3200    	6.0000      	100.0000    	0.0000      	Open  	;
 P-818           	J-948           	J-1444          	290.5490    	6.0000      	100.0000    	0.0000      	Open  	;
 P-819           	J-694           	J-949           	442.3500    	6.0000      	100.0000    	0.0000      	Open  	;
 P-82            	J-1314          	J-338           	73.3190     	6.0000      	100.0000    	0.0000      	Open  	;
 P-820           	J-611           	I-AV-224        	374.2500    	6.0000      	100.0000    	0.0000      	Open  	;
 P-821           	J-392           	J-662           	63.9190     	6.0000      	100.0000    	0.0000      	Open  	;
 P-822           	J-950           	J-951           	1047.6600   	6.0000      	140.0000    	0.0000      	Open  	;
 P-823           	J-922           	J-405           	132.9790    	6.0000      	100.0000    	0.0000      	Open  	;
 P-824           	J-459           	J-878           	115.6990    	6.0000      	100.0000    	0.0000      	Open  	;
 P-825           	J-332           	J-713           	326.5490    	8.0000      	140.0000    	0.0000      	Open  	;
 P-826           	J-499           	J-291           	1276.0500   	6.0000      	100.0000    	0.0000      	Open  	;
 P-827           	J-952           	J-427           	211.6900    	6.0000      	100.0000    	0.0000      	Open  	;
 P-828           	J-484           	J-547           	497.4590    	6.0000      	140.0000    	0.0000      	Open  	;
 P-829           	J-189           	J-953           	295.0790    	8.0000      	100.0000    	0.0000      	Open  	;
 P-830           	J-954           	J-902           	241.6190    	6.0000      	140.0000    	0.0000      	Open  	;
 P-831           	J-292           	J-448           	386.7300    	8.0000      	100.0000    	0.0000      	Open  	;
 P-832           	J-955           	J-335           	197.3890    	6.0000      	100.0000    	0.0000      	Open  	;
 P-833           	J-956           	J-328           	230.4400    	6.0000      	140.0000    	0.0000      	Open  	;
 P-835           	J-462           	J-959           	141.6190    	6.0000      	100.0000    	0.0000      	Open  	;
 P-836           	J-498           	J-960           	261.6090    	6.0000      	100.0000    	0.0000      	Open  	;
 P-837           	J-567           	J-341           	132.7200    	6.0000      	100.0000    	0.0000      	Open  	;
 P-838           	J-961           	J-793           	277.4200    	6.0000      	140.0000    	0.0000      	Open  	;
 P-839           	J-559           	J-527           	1548.2500   	12.0000     	140.0000    	0.0000      	Open  	;
 P-84            	J-124           	J-125           	133.8200    	18.0000     	100.0000    	0.0000      	Open  	;
 P-840           	J-361           	J-505           	320.7790    	8.0000      	140.0000    	0.0000      	Open  	;
 P-841           	J-962           	J-450           	201.3200    	6.0000      	100.0000    	0.0000      	Open  	;
 P-842           	J-714           	J-473           	190.7200    	6.0000      	140.0000    	0.0000      	Open  	;
 P-843           	J-961           	J-590           	799.1690    	6.0000      	140.0000    	0.0000      	Open  	;
 P-844           	J-963           	J-481           	231.9290    	6.0000      	140.0000    	0.0000      	Open  	;
 P-845           	J-805           	J-797           	530.4500    	8.0000      	140.0000    	0.0000      	Open  	;
 P-846           	J-964           	J-1440          	172.5890    	6.0000      	100.0000    	0.0000      	Open  	;
 P-847           	J-965           	I-AV-536        	257.7790    	6.0000      	100.0000    	0.0000      	Open  	;
 P-848           	J-471           	J-552           	940.8690    	12.0000     	140.0000    	0.0000      	Open  	;
 P-849           	J-537           	I-AV-39         	117.8300    	12.0000     	100.0000    	0.0000      	Open  	;
 P-85            	J-126           	J-127           	277.9400    	8.0000      	150.0000    	0.0000      	Open  	;
 P-850           	J-967           	J-876           	158.5800    	6.0000      	140.0000    	0.0000      	Open  	;
 P-851           	J-98            	J-968           	119.2900    	6.0000      	100.0000    	0.0000      	Open  	;
 P-852           	J-969           	J-54            	820.5200    	6.0000      	140.0000    	0.0000      	Open  	;
 P-853           	J-941           	I-AV-253        	310.2990    	8.0000      	100.0000    	0.0000      	Open  	;
 P-854           	J-334           	I-AV-346        	186.9490    	14.0000     	100.0000    	0.0000      	Open  	;
 P-855           	J-970           	J-971           	191.1600    	8.0000      	100.0000    	0.0000      	Open  	;
 P-856           	J-539           	J-972           	772.3690    	6.0000      	140.0000    	0.0000      	Open  	;
 P-857           	J-512           	J-875           	320.9290    	8.0000      	140.0000    	0.0000      	Open  	;
 P-858           	J-973           	J-974           	289.0700    	6.0000      	100.0000    	0.0000      	Open  	;
 P-859           	J-936           	J-975           	253.2290    	6.0000      	140.0000    	0.0000      	Open  	;
 P-86            	J-127           	J-128           	155.7200    	8.0000      	150.0000    	0.0000      	Open  	;
 P-860           	J-976           	J-1414          	246.8600    	6.0000      	150.0000    	0.0000      	Open  	;
 P-861           	J-761           	J-936           	167.5000    	6.0000      	140.0000    	0.0000      	Open  	;
 P-862           	J-978           	J-979           	826.6690    	6.0000      	100.0000    	0.0000      	Open  	;
 P-863           	J-980           	J-969           	55.8300     	6.0000      	100.0000    	0.0000      	Open  	;
 P-864           	J-972           	I-AV-721        	289.6900    	6.0000      	140.0000    	0.0000      	Open  	;
 P-865           	J-982           	J-983           	99.2790     	8.0000      	140.0000    	0.0000      	Open  	;
 P-866           	J-984           	J-985           	227.4790    	6.0000      	100.0000    	0.0000      	Open  	;
 P-867           	J-320           	J-544           	372.5000    	6.0000      	100.0000    	0.0000      	Open  	;
 P-868           	J-844           	I-AV-471        	266.0100    	6.0000      	100.0000    	0.0000      	Open  	;
 P-869           	J-188           	J-759           	307.7900    	12.0000     	100.0000    	0.0000      	Open  	;
 P-87            	J-86            	J-1408          	103.6200    	6.0000      	100.0000    	0.0000      	Open  	;
 P-870           	J-225           	I-AV-305        	127.6690    	6.0000      	100.0000    	0.0000      	Open  	;
 P-871           	J-252           	I-AV-603        	111.7090    	8.0000      	100.0000    	0.0000      	Open  	;
 P-872           	J-329           	J-987           	403.7900    	2.0000      	100.0000    	0.0000      	Open  	;
 P-873           	J-988           	I-AV-236        	339.4290    	2.0000      	100.0000    	0.0000      	Open  	;
 P-874           	J-990           	J-650           	82.3000     	8.0000      	100.0000    	0.0000      	Open  	;
 P-875           	J-725           	J-991           	321.1400    	12.0000     	100.0000    	0.0000      	Open  	;
 P-876           	J-407           	J-489           	243.9900    	6.0000      	100.0000    	0.0000      	Open  	;
 P-877           	J-992           	J-96            	409.2690    	6.0000      	100.0000    	0.0000      	Open  	;
 P-878           	J-332           	J-1378          	152.3690    	6.0000      	140.0000    	0.0000      	Open  	;
 P-879           	J-993           	J-994           	128.6100    	6.0000      	100.0000    	0.0000      	Open  	;
 P-88            	J-130           	I-AV-695        	185.8890    	16.0000     	100.0000    	0.0000      	Open  	;
 P-880           	J-900           	J-995           	437.8800    	8.0000      	140.0000    	0.0000      	Open  	;
 P-881           	J-838           	I-AV-389        	73.0290     	6.0000      	100.0000    	0.0000      	Open  	;
 P-882           	J-418           	J-1369          	102.4800    	6.0000      	100.0000    	0.0000      	Open  	;
 P-885           	J-998           	I-AV-55         	417.0000    	6.0000      	100.0000    	0.0000      	Open  	;
 P-886           	J-999           	J-1000          	516.2100    	8.0000      	100.0000    	0.0000      	Open  	;
 P-887           	J-427           	I-AV-185        	231.0200    	2.0000      	100.0000    	0.0000      	Open  	;
 P-888           	J-1002          	J-634           	326.2090    	6.0000      	140.0000    	0.0000      	Open  	;
 P-889           	J-792           	J-1003          	648.0900    	12.0000     	100.0000    	0.0000      	Open  	;
 P-89            	J-201           	J-132           	1271.1400   	18.0000     	140.0000    	0.0000      	Open  	;
 P-890           	J-173           	I-AV-498        	205.3000    	6.0000      	100.0000    	0.0000      	Open  	;
 P-891           	J-80            	I-AV-219        	539.8200    	6.0000      	100.0000    	0.0000      	Open  	;
 P-892           	J-892           	J-1005          	82.6100     	8.0000      	140.0000    	0.0000      	Open  	;
 P-893           	J-588           	J-598           	348.9400    	12.0000     	100.0000    	0.0000      	Open  	;
 P-894           	J-998           	J-1006          	235.6490    	6.0000      	100.0000    	0.0000      	Open  	;
 P-895           	J-549           	I-AV-581        	106.1500    	6.0000      	100.0000    	0.0000      	Open  	;
 P-896           	J-58            	J-1007          	230.5890    	18.0000     	100.0000    	0.0000      	Open  	;
 P-897           	J-1009          	J-594           	633.0800    	8.0000      	100.0000    	0.0000      	Open  	;
 P-898           	J-891           	I-AV-354        	101.0690    	6.0000      	100.0000    	0.0000      	Open  	;
 P-899           	J-651           	J-1010          	56.9700     	6.0000      	140.0000    	0.0000      	Open  	;
 P-9             	J-17            	J-15            	68.3390     	6.0000      	140.0000    	0.0000      	Open  	;
 P-90            	J-52            	I-AV-325        	277.2990    	6.0000      	100.0000    	0.0000      	Open  	;
 P-900           	J-433           	J-752           	427.2600    	6.0000      	100.0000    	0.0000      	Open  	;
 P-901           	J-759           	I-AV-276        	216.6100    	12.0000     	100.0000    	0.0000      	Open  	;
 P-902           	J-513           	J-211           	115.8890    	6.0000      	100.0000    	0.0000      	Open  	;
 P-903           	J-1012          	J-1013          	397.5400    	6.0000      	140.0000    	0.0000      	Open  	;
 P-904           	J-1014          	J-1015          	285.0490    	6.0000      	140.0000    	0.0000      	Open  	;
 P-905           	J-761           	J-1016          	376.7690    	6.0000      	140.0000    	0.0000      	Open  	;
 P-906           	J-846           	I-AV-139        	98.8390     	12.0000     	140.0000    	0.0000      	Open  	;
 P-907           	J-1017          	J-932           	2584.6990   	2.0000      	100.0000    	0.0000      	Open  	;
 P-908           	J-786           	J-970           	551.8690    	8.0000      	140.0000    	0.0000      	Open  	;
 P-909           	J-344           	I-AV-265        	133.5500    	6.0000      	100.0000    	0.0000      	Open  	;
 P-91            	J-134           	J-135           	271.6600    	6.0000      	100.0000    	0.0000      	Open  	;
 P-910           	J-141           	I-AV-533        	212.7400    	8.0000      	100.0000    	0.0000      	Open  	;
 P-911           	J-1018          	I-AV-706        	262.2300    	6.0000      	100.0000    	0.0000      	Open  	;
 P-912           	J-1020          	J-464           	115.1500    	6.0000      	100.0000    	0.0000      	Open  	;
 P-913           	J-186           	I-AV-485        	261.8500    	6.0000      	100.0000    	0.0000      	Open  	;
 P-914           	J-1022          	J-1023          	185.9400    	8.0000      	100.0000    	0.0000      	Open  	;
 P-915           	J-1010          	I-AV-135        	1206.6990   	16.0000     	140.0000    	0.0000      	Open  	;
 P-916           	J-1024          	J-1399          	137.7100    	6.0000      	100.0000    	0.0000      	Open  	;
 P-917           	J-701           	J-789           	152.5590    	6.0000      	100.0000    	0.0000      	Open  	;
 P-918           	J-686           	I-AV-106        	71.9490     	6.0000      	100.0000    	0.0000      	Open  	;
 P-919           	J-1026          	J-725           	383.5100    	6.0000      	100.0000    	0.0000      	Open  	;
 P-92            	J-1326          	I-AV-402        	170.4290    	6.0000      	100.0000    	0.0000      	Open  	;
 P-920           	J-1011          	I-AV-275        	167.6790    	6.0000      	100.0000    	0.0000      	Open  	;
 P-921           	J-1027          	I-AV-654        	230.3890    	6.0000      	140.0000    	0.0000      	Open  	;
 P-922           	J-690           	J-503           	404.2790    	6.0000      	100.0000    	0.0000      	Open  	;
 P-923           	J-504           	J-766           	204.3300    	6.0000      	140.0000    	0.0000      	Open  	;
 P-924           	J-338           	J-891           	162.5200    	12.0000     	100.0000    	0.0000      	Open  	;
 P-925           	J-1029          	J-1030          	144.3500    	8.0000      	100.0000    	0.0000      	Open  	;
 P-926           	J-67            	J-968           	132.0500    	2.0000      	100.0000    	0.0000      	Open  	;
 P-927           	J-913           	J-702           	237.0000    	8.0000      	100.0000    	0.0000      	Open  	;
 P-928           	J-1013          	J-1032          	265.2790    	4.0000      	150.0000    	0.0000      	Open  	;
 P-929           	J-988           	J-1033          	92.1290     	6.0000      	100.0000    	0.0000      	Open  	;
 P-93            	J-138           	J-139           	151.1490    	8.0000      	150.0000    	0.0000      	Open  	;
 P-930           	J-752           	I-AV-237        	211.3300    	6.0000      	100.0000    	0.0000      	Open  	;
 P-931           	J-303           	I-AV-605        	167.3690    	8.0000      	140.0000    	0.0000      	Open  	;
 P-932           	J-729           	J-829           	562.9600    	8.0000      	140.0000    	0.0000      	Open  	;
 P-933           	J-475           	J-499           	218.7890    	8.0000      	100.0000    	0.0000      	Open  	;
 P-934           	J-203           	I-AV-28         	117.9590    	6.0000      	100.0000    	0.0000      	Open  	;
 P-935           	J-281           	J-1417          	186.3500    	6.0000      	100.0000    	0.0000      	Open  	;
 P-936           	J-326           	I-AV-438        	188.0200    	12.0000     	140.0000    	0.0000      	Open  	;
 P-938           	J-371           	J-200           	853.0100    	12.0000     	100.0000    	0.0000      	Open  	;
 P-939           	J-1035          	I-AV-82         	174.1300    	12.0000     	100.0000    	0.0000      	Open  	;
 P-94            	J-4             	J-140           	189.3200    	6.0000      	100.0000    	0.0000      	Open  	;
 P-940           	J-468           	J-1423          	511.4400    	6.0000      	100.0000    	0.0000      	Open  	;
 P-941           	J-1036          	J-922           	501.2300    	6.0000      	100.0000    	0.0000      	Open  	;
 P-942           	J-1037          	I-AV-576        	479.9100    	6.0000      	100.0000    	0.0000      	Open  	;
 P-943           	J-225           	J-1441          	153.9600    	6.0000      	100.0000    	0.0000      	Open  	;
 P-944           	J-172           	J-1039          	132.0200    	2.0000      	100.0000    	0.0000      	Open  	;
 P-945           	J-494           	J-102           	449.8990    	6.0000      	100.0000    	0.0000      	Open  	;
 P-946           	J-773           	I-AV-511        	140.6990    	6.0000      	100.0000    	0.0000      	Open  	;
 P-947           	J-620           	J-164           	608.2600    	6.0000      	100.0000    	0.0000      	Open  	;
 P-948           	J-886           	J-1041          	185.6990    	6.0000      	100.0000    	0.0000      	Open  	;
 P-949           	J-1037          	J-1398          	159.1690    	6.0000      	100.0000    	0.0000      	Open  	;
 P-95            	J-130           	I-AV-696        	247.9190    	12.0000     	100.0000    	0.0000      	Open  	;
 P-950           	J-1300          	J-320           	178.4400    	12.0000     	100.0000    	0.0000      	Open  	;
 P-951           	J-1044          	J-1036          	340.1600    	6.0000      	100.0000    	0.0000      	Open  	;
 P-952           	J-1045          	I-AV-111        	859.5390    	6.0000      	100.0000    	0.0000      	Open  	;
 P-953           	J-816           	J-1046          	2118.3700   	8.0000      	140.0000    	0.0000      	Open  	;
 P-954           	J-451           	I-AV-84         	382.2300    	8.0000      	100.0000    	0.0000      	Open  	;
 P-955           	J-1047          	I-AV-738        	332.9100    	6.0000      	100.0000    	0.0000      	Open  	;
 P-956           	J-1048          	I-AV-480        	108.5800    	10.0000     	100.0000    	0.0000      	Open  	;
 P-957           	J-353           	J-1040          	183.5800    	6.0000      	100.0000    	0.0000      	Open  	;
 P-958           	J-342           	J-11            	286.1700    	6.0000      	100.0000    	0.0000      	Open  	;
 P-959           	J-585           	I-AV-18         	143.7200    	6.0000      	100.0000    	0.0000      	Open  	;
 P-96            	J-98            	I-AV-548        	552.7500    	6.0000      	100.0000    	0.0000      	Open  	;
 P-962           	J-1049          	J-444           	595.0800    	6.0000      	100.0000    	0.0000      	Open  	;
 P-963           	J-328           	I-AV-637        	229.7890    	6.0000      	140.0000    	0.0000      	Open  	;
 P-964           	J-1048          	J-848           	355.5590    	6.0000      	100.0000    	0.0000      	Open  	;
 P-965           	J-674           	J-657           	282.5100    	8.0000      	140.0000    	0.0000      	Open  	;
 P-966           	J-1338          	I-AV-643        	98.5800     	8.0000      	140.0000    	0.0000      	Open  	;
 P-967           	J-921           	J-879           	329.9290    	6.0000      	100.0000    	0.0000      	Open  	;
 P-968           	J-820           	J-77            	201.7890    	6.0000      	100.0000    	0.0000      	Open  	;
 P-97            	J-136           	I-AV-8          	194.2590    	12.0000     	100.0000    	0.0000      	Open  	;
 P-970           	J-798           	J-914           	604.7500    	6.0000      	100.0000    	0.0000      	Open  	;
 P-971           	J-503           	J-620           	415.3500    	6.0000      	100.0000    	0.0000      	Open  	;
 P-972           	J-1053          	J-821           	324.2390    	6.0000      	100.0000    	0.0000      	Open  	;
 P-973           	J-571           	J-1054          	236.0390    	6.0000      	140.0000    	0.0000      	Open  	;
 P-974           	J-667           	I-AV-594        	184.1690    	8.0000      	100.0000    	0.0000      	Open  	;
 P-975           	J-82            	J-89            	152.1790    	2.0000      	100.0000    	0.0000      	Open  	;
 P-976           	J-1056          	I-AV-150        	366.0890    	8.0000      	100.0000    	0.0000      	Open  	;
 P-977           	J-340           	J-913           	171.5000    	8.0000      	100.0000    	0.0000      	Open  	;
 P-978           	J-381           	I-AV-293        	188.1100    	2.0000      	100.0000    	0.0000      	Open  	;
 P-979           	J-399           	I-AV-292        	180.6490    	4.0000      	100.0000    	0.0000      	Open  	;
 P-98            	J-145           	J-69            	66.8000     	18.0000     	140.0000    	0.0000      	Open  	;
 P-980           	J-206           	J-415           	552.3800    	6.0000      	100.0000    	0.0000      	Open  	;
 P-981           	J-833           	J-902           	343.8500    	6.0000      	140.0000    	0.0000      	Open  	;
 P-982           	J-1042          	J-115           	166.7200    	6.0000      	100.0000    	0.0000      	Open  	;
 P-983           	J-1060          	I-AV-494        	127.2600    	6.0000      	100.0000    	0.0000      	Open  	;
 P-984           	J-973           	J-1452          	125.5190    	6.0000      	150.0000    	0.0000      	Open  	;
 P-985           	J-147           	I-AV-680        	1725.3800   	6.0000      	140.0000    	0.0000      	Open  	;
 P-986           	J-1062          	J-1063          	723.0700    	6.0000      	100.0000    	0.0000      	Open  	;
 P-987           	J-1064          	J-374           	651.7990    	10.0000     	100.0000    	0.0000      	Open  	;
 P-988           	J-917           	J-294           	831.0100    	6.0000      	100.0000    	0.0000      	Open  	;
 P-989           	J-1023          	I-AV-67         	160.6990    	8.0000      	100.0000    	0.0000      	Open  	;
 P-99            	R-2             	J-1453          	1246.0000   	18.0000     	100.0000    	0.0000      	Open  	;
 P-990           	J-229           	J-1270          	115.1800    	1.0000      	100.0000    	0.0000      	Open  	;
 P-991           	J-1068          	J-896           	177.6600    	6.0000      	140.0000    	0.0000      	Open  	;
 P-992           	J-1069          	J-1070          	192.3390    	6.0000      	100.0000    	0.0000      	Open  	;
 P-993           	J-1071          	J-1072          	986.5000    	6.0000      	100.0000    	0.0000      	Open  	;
 P-994           	J-85            	I-AV-287        	246.1900    	6.0000      	140.0000    	0.0000      	Open  	;
 P-995           	J-627           	I-AV-401        	87.6100     	10.0000     	100.0000    	0.0000      	Open  	;
 P-996           	J-177           	J-352           	1.6390      	6.0000      	100.0000    	0.0000      	Open  	;
 P-997           	J-214           	I-AV-527        	212.4400    	6.0000      	100.0000    	0.0000      	Open  	;
 P-998           	J-1073          	J-434           	168.8300    	6.0000      	140.0000    	0.0000      	Open  	;
 P-999           	J-599           	I-AV-656        	168.8200    	12.0000     	140.0000    	0.0000      	Open  	;

[PUMPS]
;ID              	Node1           	Node2           	Parameters
 ~@Pump-1        	I-Pump-1        	O-Pump-1        	POWER 75.0000	;
 ~@Pump-2        	I-Pump-2        	O-Pump-2        	POWER 100.0000	;
 ~@Pump-4        	I-Pump-4        	O-Pump-4        	POWER 40.0000	;
 ~@Pump-5        	I-Pump-5        	O-Pump-5        	POWER 40.0000	;

[VALVES]
;ID              	Node1           	Node2           	Diameter    	Type	Setting     	MinorLoss   
 ~@AV-100        	I-AV-100        	O-AV-100        	1000.0000   	TCV 	100.0000    	0.0000      	;
 ~@AV-101        	I-AV-101        	O-AV-101        	1000.0000   	TCV 	100.0000    	0.0000      	;
 ~@AV-105        	I-AV-105        	O-AV-105        	1000.0000   	TCV 	100.0000    	0.0000      	;
 ~@AV-106        	I-AV-106        	O-AV-106        	1000.0000   	TCV 	100.0000    	0.0000      	;
 ~@AV-107        	I-AV-107        	O-AV-107        	1000.0000   	TCV 	100.0000    	0.0000      	;
 ~@AV-108        	I-AV-108        	O-AV-108        	1000.0000   	TCV 	100.0000    	0.0000      	;
 ~@AV-109        	I-AV-109        	O-AV-109        	1000.0000   	TCV 	100.0000    	0.0000      	;
 ~@AV-110        	I-AV-110        	O-AV-110        	1000.0000   	TCV 	100.0000    	0.0000      	;
 ~@AV-111        	I-AV-111        	O-AV-111        	1000.0000   	TCV 	100.0000    	0.0000      	;
 ~@AV-112        	I-AV-112        	O-AV-112        	1000.0000   	TCV 	100.0000    	0.0000      	;
 ~@AV-113        	I-AV-113        	O-AV-113        	1000.0000   	TCV 	100.0000    	0.0000      	;
 ~@AV-114        	I-AV-114        	O-AV-114        	1000.0000   	TCV 	100.0000    	0.0000      	;
 ~@AV-115        	I-AV-115        	O-AV-115        	1000.0000   	TCV 	100.0000    	0.0000      	;
 ~@AV-12         	I-AV-12         	O-AV-12         	1000.0000   	TCV 	100.0000    	0.0000      	;
 ~@AV-122        	I-AV-122        	O-AV-122        	1000.0000   	TCV 	100.0000    	0.0000      	;
 ~@AV-123        	I-AV-123        	O-AV-123        	1000.0000   	TCV 	100.0000    	0.0000      	;
 ~@AV-125        	I-AV-125        	O-AV-125        	1000.0000   	TCV 	100.0000    	0.0000      	;
 ~@AV-126        	I-AV-126        	O-AV-126        	1000.0000   	TCV 	100.0000    	0.0000      	;
 ~@AV-127        	I-AV-127        	O-AV-127        	1000.0000   	TCV 	100.0000    	0.0000      	;
 ~@AV-128        	I-AV-128        	O-AV-128        	1000.0000   	TCV 	100.0000    	0.0000      	;
 ~@AV-129        	I-AV-129        	O-AV-129        	1000.0000   	TCV 	100.0000    	0.0000      	;
 ~@AV-130        	I-AV-130        	O-AV-130        	1000.0000   	TCV 	100.0000    	0.0000      	;
 ~@AV-131        	I-AV-131        	O-AV-131        	1000.0000   	TCV 	100.0000    	0.0000      	;
 ~@AV-134        	I-AV-134        	O-AV-134        	1000.0000   	TCV 	100.0000    	0.0000      	;
 ~@AV-135        	I-AV-135        	O-AV-135        	1000.0000   	TCV 	100.0000    	0.0000      	;
 ~@AV-136        	I-AV-136        	O-AV-136        	1000.0000   	TCV 	100.0000    	0.0000      	;
 ~@AV-137        	I-AV-137        	O-AV-137        	1000.0000   	TCV 	100.0000    	0.0000      	;
 ~@AV-138        	I-AV-138        	O-AV-138        	1000.0000   	TCV 	100.0000    	0.0000      	;
 ~@AV-139        	I-AV-139        	O-AV-139        	1000.0000   	TCV 	100.0000    	0.0000      	;
 ~@AV-142        	I-AV-142        	O-AV-142        	1000.0000   	TCV 	100.0000    	0.0000      	;
 ~@AV-143        	I-AV-143        	O-AV-143        	1000.0000   	TCV 	100.0000    	0.0000      	;
 ~@AV-144        	I-AV-144        	O-AV-144        	1000.0000   	TCV 	100.0000    	0.0000      	;
 ~@AV-145        	I-AV-145        	O-AV-145        	1000.0000   	TCV 	100.0000    	0.0000      	;
 ~@AV-146        	I-AV-146        	O-AV-146        	1000.0000   	TCV 	100.0000    	0.0000      	;
 ~@AV-147        	I-AV-147        	O-AV-147        	1000.0000   	TCV 	100.0000    	0.0000      	;
 ~@AV-149        	I-AV-149        	O-AV-149        	1000.0000   	TCV 	100.0000    	0.0000      	;
 ~@AV-150        	I-AV-150        	O-AV-150        	1000.0000   	TCV 	100.0000    	0.0000      	;
 ~@AV-152        	I-AV-152        	O-AV-152        	1000.0000   	TCV 	100.0000    	0.0000      	;
 ~@AV-153        	I-AV-153        	O-AV-153        	1000.0000   	TCV 	100.0000    	0.0000      	;
 ~@AV-155        	I-AV-155        	O-AV-155        	1000.0000   	TCV 	100.0000    	0.0000      	;
 ~@AV-156        	I-AV-156        	O-AV-156        	1000.0000   	TCV 	100.0000    	0.0000      	;
 ~@AV-158        	I-AV-158        	O-AV-158        	1000.0000   	TCV 	100.0000    	0.0000      	;
 ~@AV-16         	I-AV-16         	O-AV-16         	1000.0000   	TCV 	100.0000    	0.0000      	;
 ~@AV-160        	I-AV-160        	O-AV-160        	1000.0000   	TCV 	100.0000    	0.0000      	;
 ~@AV-162        	I-AV-162        	O-AV-162        	1000.0000   	TCV 	100.0000    	0.0000      	;
 ~@AV-163        	I-AV-163        	O-AV-163        	1000.0000   	TCV 	100.0000    	0.0000      	;
 ~@AV-165        	I-AV-165        	O-AV-165        	1000.0000   	TCV 	100.0000    	0.0000      	;
 ~@AV-166        	I-AV-166        	O-AV-166        	1000.0000   	TCV 	100.0000    	0.0000      	;
 ~@AV-168        	I-AV-168        	O-AV-168        	1000.0000   	TCV 	100.0000    	0.0000      	;
 ~@AV-169        	I-AV-169        	O-AV-169        	1000.0000   	TCV 	100.0000    	0.0000      	;
 ~@AV-170        	I-AV-170        	O-AV-170        	1000.0000   	TCV 	100.0000    	0.0000      	;
 ~@AV-171        	I-AV-171        	O-AV-171        	1000.0000   	TCV 	100.0000    	0.0000      	;
 ~@AV-173        	I-AV-173        	O-AV-173        	1000.0000   	TCV 	100.0000    	0.0000      	;
 ~@AV-174        	I-AV-174        	O-AV-174        	1000.0000   	TCV 	100.0000    	0.0000      	;
 ~@AV-175        	I-AV-175        	O-AV-175        	1000.0000   	TCV 	100.0000    	0.0000      	;
 ~@AV-177        	I-AV-177        	O-AV-177        	1000.0000   	TCV 	100.0000    	0.0000      	;
 ~@AV-178        	I-AV-178        	O-AV-178        	1000.0000   	TCV 	100.0000    	0.0000      	;
 ~@AV-179        	I-AV-179        	O-AV-179        	1000.0000   	TCV 	100.0000    	0.0000      	;
 ~@AV-18         	I-AV-18         	O-AV-18         	1000.0000   	TCV 	100.0000    	0.0000      	;
 ~@AV-180        	I-AV-180        	O-AV-180        	1000.0000   	TCV 	100.0000    	0.0000      	;
 ~@AV-181        	I-AV-181        	O-AV-181        	1000.0000   	TCV 	100.0000    	0.0000      	;
 ~@AV-183        	I-AV-183        	O-AV-183        	1000.0000   	TCV 	100.0000    	0.0000      	;
 ~@AV-185        	I-AV-185        	O-AV-185        	1000.0000   	TCV 	100.0000    	0.0000      	;
 ~@AV-186        	I-AV-186        	O-AV-186        	1000.0000   	TCV 	100.0000    	0.0000      	;
 ~@AV-189        	I-AV-189        	O-AV-189        	1000.0000   	TCV 	100.0000    	0.0000      	;
 ~@AV-190        	I-AV-190        	O-AV-190        	1000.0000   	TCV 	100.0000    	0.0000      	;
 ~@AV-191        	I-AV-191        	O-AV-191        	1000.0000   	TCV 	100.0000    	0.0000      	;
 ~@AV-194        	I-AV-194        	O-AV-194        	1000.0000   	TCV 	100.0000    	0.0000      	;
 ~@AV-195        	I-AV-195        	O-AV-195        	1000.0000   	TCV 	100.0000    	0.0000      	;
 ~@AV-196        	I-AV-196        	O-AV-196        	1000.0000   	TCV 	100.0000    	0.0000      	;
 ~@AV-198        	I-AV-198        	O-AV-198        	1000.0000   	TCV 	100.0000    	0.0000      	;
 ~@AV-199        	I-AV-199        	O-AV-199        	1000.0000   	TCV 	100.0000    	0.0000      	;
 ~@AV-200        	I-AV-200        	O-AV-200        	1000.0000   	TCV 	100.0000    	0.0000      	;
 ~@AV-201        	I-AV-201        	O-AV-201        	1000.0000   	TCV 	100.0000    	0.0000      	;
 ~@AV-203        	I-AV-203        	O-AV-203        	1000.0000   	TCV 	100.0000    	0.0000      	;
 ~@AV-204        	I-AV-204        	O-AV-204        	1000.0000   	TCV 	100.0000    	0.0000      	;
 ~@AV-205        	I-AV-205        	O-AV-205        	1000.0000   	TCV 	100.0000    	0.0000      	;
 ~@AV-206        	I-AV-206        	O-AV-206        	1000.0000   	TCV 	100.0000    	0.0000      	;
 ~@AV-208        	I-AV-208        	O-AV-208        	1000.0000   	TCV 	100.0000    	0.0000      	;
 ~@AV-209        	I-AV-209        	O-AV-209        	1000.0000   	TCV 	100.0000    	0.0000      	;
 ~@AV-211        	I-AV-211        	O-AV-211        	1000.0000   	TCV 	100.0000    	0.0000      	;
 ~@AV-212        	I-AV-212        	O-AV-212        	1000.0000   	TCV 	100.0000    	0.0000      	;
 ~@AV-215        	I-AV-215        	O-AV-215        	1000.0000   	TCV 	100.0000    	0.0000      	;
 ~@AV-216        	I-AV-216        	O-AV-216        	1000.0000   	TCV 	100.0000    	0.0000      	;
 ~@AV-217        	I-AV-217        	O-AV-217        	1000.0000   	TCV 	100.0000    	0.0000      	;
 ~@AV-218        	I-AV-218        	O-AV-218        	1000.0000   	TCV 	100.0000    	0.0000      	;
 ~@AV-219        	I-AV-219        	O-AV-219        	1000.0000   	TCV 	100.0000    	0.0000      	;
 ~@AV-22         	I-AV-22         	O-AV-22         	1000.0000   	TCV 	100.0000    	0.0000      	;
 ~@AV-222        	I-AV-222        	O-AV-222        	1000.0000   	TCV 	100.0000    	0.0000      	;
 ~@AV-223        	I-AV-223        	O-AV-223        	1000.0000   	TCV 	100.0000    	0.0000      	;
 ~@AV-224        	I-AV-224        	O-AV-224        	1000.0000   	TCV 	100.0000    	0.0000      	;
 ~@AV-225        	I-AV-225        	O-AV-225        	1000.0000   	TCV 	100.0000    	0.0000      	;
 ~@AV-226        	I-AV-226        	O-AV-226        	1000.0000   	TCV 	100.0000    	0.0000      	;
 ~@AV-228        	I-AV-228        	O-AV-228        	1000.0000   	TCV 	100.0000    	0.0000      	;
 ~@AV-229        	I-AV-229        	O-AV-229        	1000.0000   	TCV 	100.0000    	0.0000      	;
 ~@AV-231        	I-AV-231        	O-AV-231        	1000.0000   	TCV 	100.0000    	0.0000      	;
 ~@AV-233        	I-AV-233        	O-AV-233        	1000.0000   	TCV 	100.0000    	0.0000      	;
 ~@AV-234        	I-AV-234        	O-AV-234        	1000.0000   	TCV 	100.0000    	0.0000      	;
 ~@AV-235        	I-AV-235        	O-AV-235        	1000.0000   	TCV 	100.0000    	0.0000      	;
 ~@AV-236        	I-AV-236        	O-AV-236        	1000.0000   	TCV 	100.0000    	0.0000      	;
 ~@AV-237        	I-AV-237        	O-AV-237        	1000.0000   	TCV 	100.0000    	0.0000      	;
 ~@AV-238        	I-AV-238        	O-AV-238        	1000.0000   	TCV 	100.0000    	0.0000      	;
 ~@AV-239        	I-AV-239        	O-AV-239        	1000.0000   	TCV 	100.0000    	0.0000      	;
 ~@AV-241        	I-AV-241        	O-AV-241        	1000.0000   	TCV 	100.0000    	0.0000      	;
 ~@AV-243        	I-AV-243        	O-AV-243        	1000.0000   	TCV 	100.0000    	0.0000      	;
 ~@AV-244        	I-AV-244        	O-AV-244        	1000.0000   	TCV 	100.0000    	0.0000      	;
 ~@AV-245        	I-AV-245        	O-AV-245        	1000.0000   	TCV 	100.0000    	0.0000      	;
 ~@AV-246        	I-AV-246        	O-AV-246        	1000.0000   	TCV 	100.0000    	0.0000      	;
 ~@AV-25         	I-AV-25         	O-AV-25         	1000.0000   	TCV 	100.0000    	0.0000      	;
 ~@AV-250        	I-AV-250        	O-AV-250        	1000.0000   	TCV 	100.0000    	0.0000      	;
 ~@AV-252        	I-AV-252        	O-AV-252        	1000.0000   	TCV 	100.0000    	0.0000      	;
 ~@AV-253        	I-AV-253        	O-AV-253        	1000.0000   	TCV 	100.0000    	0.0000      	;
 ~@AV-254        	I-AV-254        	O-AV-254        	1000.0000   	TCV 	100.0000    	0.0000      	;
 ~@AV-255        	I-AV-255        	O-AV-255        	1000.0000   	TCV 	100.0000    	0.0000      	;
 ~@AV-256        	I-AV-256        	O-AV-256        	1000.0000   	TCV 	100.0000    	0.0000      	;
 ~@AV-257        	I-AV-257        	O-AV-257        	1000.0000   	TCV 	100.0000    	0.0000      	;
 ~@AV-258        	I-AV-258        	O-AV-258        	1000.0000   	TCV 	100.0000    	0.0000      	;
 ~@AV-259        	I-AV-259        	O-AV-259        	1000.0000   	TCV 	100.0000    	0.0000      	;
 ~@AV-26         	I-AV-26         	O-AV-26         	1000.0000   	TCV 	100.0000    	0.0000      	;
 ~@AV-260        	I-AV-260        	O-AV-260        	1000.0000   	TCV 	100.0000    	0.0000      	;
 ~@AV-261        	I-AV-261        	O-AV-261        	1000.0000   	TCV 	100.0000    	0.0000      	;
 ~@AV-262        	I-AV-262        	O-AV-262        	1000.0000   	TCV 	100.0000    	0.0000      	;
 ~@AV-263        	I-AV-263        	O-AV-263        	1000.0000   	TCV 	100.0000    	0.0000      	;
 ~@AV-265        	I-AV-265        	O-AV-265        	1000.0000   	TCV 	100.0000    	0.0000      	;
 ~@AV-266        	I-AV-266        	O-AV-266        	1000.0000   	TCV 	100.0000    	0.0000      	;
 ~@AV-267        	I-AV-267        	O-AV-267        	1000.0000   	TCV 	100.0000    	0.0000      	;
 ~@AV-268        	I-AV-268        	O-AV-268        	1000.0000   	TCV 	100.0000    	0.0000      	;
 ~@AV-269        	I-AV-269        	O-AV-269        	1000.0000   	TCV 	100.0000    	0.0000      	;
 ~@AV-27         	I-AV-27         	O-AV-27         	1000.0000   	TCV 	100.0000    	0.0000      	;
 ~@AV-271        	I-AV-271        	O-AV-271        	1000.0000   	TCV 	100.0000    	0.0000      	;
 ~@AV-273        	I-AV-273        	O-AV-273        	1000.0000   	TCV 	100.0000    	0.0000      	;
 ~@AV-274        	I-AV-274        	O-AV-274        	1000.0000   	TCV 	100.0000    	0.0000      	;
 ~@AV-275        	I-AV-275        	O-AV-275        	1000.0000   	TCV 	100.0000    	0.0000      	;
 ~@AV-276        	I-AV-276        	O-AV-276        	1000.0000   	TCV 	100.0000    	0.0000      	;
 ~@AV-277        	I-AV-277        	O-AV-277        	1000.0000   	TCV 	100.0000    	0.0000      	;
 ~@AV-279        	I-AV-279        	O-AV-279        	1000.0000   	TCV 	100.0000    	0.0000      	;
 ~@AV-28         	I-AV-28         	O-AV-28         	1000.0000   	TCV 	100.0000    	0.0000      	;
 ~@AV-281        	I-AV-281        	O-AV-281        	1000.0000   	TCV 	100.0000    	0.0000      	;
 ~@AV-282        	I-AV-282        	O-AV-282        	1000.0000   	TCV 	100.0000    	0.0000      	;
 ~@AV-283        	I-AV-283        	O-AV-283        	1000.0000   	TCV 	100.0000    	0.0000      	;
 ~@AV-286        	I-AV-286        	O-AV-286        	1000.0000   	TCV 	100.0000    	0.0000      	;
 ~@AV-287        	I-AV-287        	O-AV-287        	1000.0000   	TCV 	100.0000    	0.0000      	;
 ~@AV-290        	I-AV-290        	O-AV-290        	1000.0000   	TCV 	100.0000    	0.0000      	;
 ~@AV-291        	I-AV-291        	O-AV-291        	1000.0000   	TCV 	100.0000    	0.0000      	;
 ~@AV-292        	I-AV-292        	O-AV-292        	1000.0000   	TCV 	100.0000    	0.0000      	;
 ~@AV-293        	I-AV-293        	O-AV-293        	1000.0000   	TCV 	100.0000    	0.0000      	;
 ~@AV-294        	I-AV-294        	O-AV-294        	1000.0000   	TCV 	100.0000    	0.0000      	;
 ~@AV-296        	I-AV-296        	O-AV-296        	1000.0000   	TCV 	100.0000    	0.0000      	;
 ~@AV-297        	I-AV-297        	O-AV-297        	1000.0000   	TCV 	100.0000    	0.0000      	;
 ~@AV-298        	I-AV-298        	O-AV-298        	1000.0000   	TCV 	100.0000    	0.0000      	;
 ~@AV-299        	I-AV-299        	O-AV-299        	1000.0000   	TCV 	100.0000    	0.0000      	;
 ~@AV-3          	I-AV-3          	O-AV-3          	1000.0000   	TCV 	100.0000    	0.0000      	;
 ~@AV-302        	I-AV-302        	O-AV-302        	1000.0000   	TCV 	100.0000    	0.0000      	;
 ~@AV-305        	I-AV-305        	O-AV-305        	1000.0000   	TCV 	100.0000    	0.0000      	;
 ~@AV-306        	I-AV-306        	O-AV-306        	1000.0000   	TCV 	100.0000    	0.0000      	;
 ~@AV-307        	I-AV-307        	O-AV-307        	1000.0000   	TCV 	100.0000    	0.0000      	;
 ~@AV-308        	I-AV-308        	O-AV-308        	1000.0000   	TCV 	100.0000    	0.0000      	;
 ~@AV-31         	I-AV-31         	O-AV-31         	1000.0000   	TCV 	100.0000    	0.0000      	;
 ~@AV-310        	I-AV-310        	O-AV-310        	1000.0000   	TCV 	100.0000    	0.0000      	;
 ~@AV-312        	I-AV-312        	O-AV-312        	1000.0000   	TCV 	100.0000    	0.0000      	;
 ~@AV-313        	I-AV-313        	O-AV-313        	1000.0000   	TCV 	100.0000    	0.0000      	;
 ~@AV-315        	I-AV-315        	O-AV-315        	1000.0000   	TCV 	100.0000    	0.0000      	;
 ~@AV-319        	I-AV-319        	O-AV-319        	1000.0000   	TCV 	100.0000    	0.0000      	;
 ~@AV-32         	I-AV-32         	O-AV-32         	1000.0000   	TCV 	100.0000    	0.0000      	;
 ~@AV-320        	I-AV-320        	O-AV-320        	1000.0000   	TCV 	100.0000    	0.0000      	;
 ~@AV-321        	I-AV-321        	O-AV-321        	1000.0000   	TCV 	100.0000    	0.0000      	;
 ~@AV-322        	I-AV-322        	O-AV-322        	1000.0000   	TCV 	100.0000    	0.0000      	;
 ~@AV-323        	I-AV-323        	O-AV-323        	1000.0000   	TCV 	100.0000    	0.0000      	;
 ~@AV-325        	I-AV-325        	O-AV-325        	1000.0000   	TCV 	100.0000    	0.0000      	;
 ~@AV-327        	I-AV-327        	O-AV-327        	1000.0000   	TCV 	100.0000    	0.0000      	;
 ~@AV-330        	I-AV-330        	O-AV-330        	1000.0000   	TCV 	100.0000    	0.0000      	;
 ~@AV-334        	I-AV-334        	O-AV-334        	1000.0000   	TCV 	100.0000    	0.0000      	;
 ~@AV-335        	I-AV-335        	O-AV-335        	1000.0000   	TCV 	100.0000    	0.0000      	;
 ~@AV-338        	I-AV-338        	O-AV-338        	1000.0000   	TCV 	100.0000    	0.0000      	;
 ~@AV-341        	I-AV-341        	O-AV-341        	1000.0000   	TCV 	100.0000    	0.0000      	;
 ~@AV-342        	I-AV-342        	O-AV-342        	1000.0000   	TCV 	100.0000    	0.0000      	;
 ~@AV-343        	I-AV-343        	O-AV-343        	1000.0000   	TCV 	100.0000    	0.0000      	;
 ~@AV-344        	I-AV-344        	O-AV-344        	1000.0000   	TCV 	100.0000    	0.0000      	;
 ~@AV-345        	I-AV-345        	O-AV-345        	1000.0000   	TCV 	100.0000    	0.0000      	;
 ~@AV-346        	I-AV-346        	O-AV-346        	1000.0000   	TCV 	100.0000    	0.0000      	;
 ~@AV-348        	I-AV-348        	O-AV-348        	1000.0000   	TCV 	100.0000    	0.0000      	;
 ~@AV-349        	I-AV-349        	O-AV-349        	1000.0000   	TCV 	100.0000    	0.0000      	;
 ~@AV-352        	I-AV-352        	O-AV-352        	1000.0000   	TCV 	100.0000    	0.0000      	;
 ~@AV-354        	I-AV-354        	O-AV-354        	1000.0000   	TCV 	100.0000    	0.0000      	;
 ~@AV-355        	I-AV-355        	O-AV-355        	1000.0000   	TCV 	100.0000    	0.0000      	;
 ~@AV-357        	I-AV-357        	O-AV-357        	1000.0000   	TCV 	100.0000    	0.0000      	;
 ~@AV-358        	I-AV-358        	O-AV-358        	1000.0000   	TCV 	100.0000    	0.0000      	;
 ~@AV-359        	I-AV-359        	O-AV-359        	1000.0000   	TCV 	100.0000    	0.0000      	;
 ~@AV-36         	I-AV-36         	O-AV-36         	1000.0000   	TCV 	100.0000    	0.0000      	;
 ~@AV-360        	I-AV-360        	O-AV-360        	1000.0000   	TCV 	100.0000    	0.0000      	;
 ~@AV-361        	I-AV-361        	O-AV-361        	1000.0000   	TCV 	100.0000    	0.0000      	;
 ~@AV-363        	I-AV-363        	O-AV-363        	1000.0000   	TCV 	100.0000    	0.0000      	;
 ~@AV-364        	I-AV-364        	O-AV-364        	1000.0000   	TCV 	100.0000    	0.0000      	;
 ~@AV-366        	I-AV-366        	O-AV-366        	1000.0000   	TCV 	100.0000    	0.0000      	;
 ~@AV-369        	I-AV-369        	O-AV-369        	1000.0000   	TCV 	100.0000    	0.0000      	;
 ~@AV-37         	I-AV-37         	O-AV-37         	1000.0000   	TCV 	100.0000    	0.0000      	;
 ~@AV-370        	I-AV-370        	O-AV-370        	1000.0000   	TCV 	100.0000    	0.0000      	;
 ~@AV-371        	I-AV-371        	O-AV-371        	1000.0000   	TCV 	100.0000    	0.0000      	;
 ~@AV-372        	I-AV-372        	O-AV-372        	1000.0000   	TCV 	100.0000    	0.0000      	;
 ~@AV-374        	I-AV-374        	O-AV-374        	1000.0000   	TCV 	100.0000    	0.0000      	;
 ~@AV-375        	I-AV-375        	O-AV-375        	1000.0000   	TCV 	100.0000    	0.0000      	;
 ~@AV-376        	I-AV-376        	O-AV-376        	1000.0000   	TCV 	100.0000    	0.0000      	;
 ~@AV-377        	I-AV-377        	O-AV-377        	1000.0000   	TCV 	100.0000    	0.0000      	;
 ~@AV-378        	I-AV-378        	O-AV-378        	1000.0000   	TCV 	100.0000    	0.0000      	;
 ~@AV-379        	I-AV-379        	O-AV-379        	1000.0000   	TCV 	100.0000    	0.0000      	;
 ~@AV-380        	I-AV-380        	O-AV-380        	1000.0000   	TCV 	100.0000    	0.0000      	;
 ~@AV-381        	I-AV-381        	O-AV-381        	1000.0000   	TCV 	100.0000    	0.0000      	;
 ~@AV-382        	I-AV-382        	O-AV-382        	1000.0000   	TCV 	100.0000    	0.0000      	;
 ~@AV-383        	I-AV-383        	O-AV-383        	1000.0000   	TCV 	100.0000    	0.0000      	;
 ~@AV-384        	I-AV-384        	O-AV-384        	1000.0000   	TCV 	100.0000    	0.0000      	;
 ~@AV-385        	I-AV-385        	O-AV-385        	1000.0000   	TCV 	100.0000    	0.0000      	;
 ~@AV-388        	I-AV-388        	O-AV-388        	1000.0000   	TCV 	100.0000    	0.0000      	;
 ~@AV-389        	I-AV-389        	O-AV-389        	1000.0000   	TCV 	100.0000    	0.0000      	;
 ~@AV-39         	I-AV-39         	O-AV-39         	1000.0000   	TCV 	100.0000    	0.0000      	;
 ~@AV-390        	I-AV-390        	O-AV-390        	1000.0000   	TCV 	100.0000    	0.0000      	;
 ~@AV-391        	I-AV-391        	O-AV-391        	1000.0000   	TCV 	100.0000    	0.0000      	;
 ~@AV-393        	I-AV-393        	O-AV-393        	1000.0000   	TCV 	100.0000    	0.0000      	;
 ~@AV-398        	I-AV-398        	O-AV-398        	1000.0000   	TCV 	100.0000    	0.0000      	;
 ~@AV-40         	I-AV-40         	O-AV-40         	1000.0000   	TCV 	100.0000    	0.0000      	;
 ~@AV-401        	I-AV-401        	O-AV-401        	1000.0000   	TCV 	100.0000    	0.0000      	;
 ~@AV-402        	I-AV-402        	O-AV-402        	1000.0000   	TCV 	100.0000    	0.0000      	;
 ~@AV-403        	I-AV-403        	O-AV-403        	1000.0000   	TCV 	100.0000    	0.0000      	;
 ~@AV-404        	I-AV-404        	O-AV-404        	1000.0000   	TCV 	100.0000    	0.0000      	;
 ~@AV-405        	I-AV-405        	O-AV-405        	1000.0000   	TCV 	100.0000    	0.0000      	;
 ~@AV-406        	I-AV-406        	O-AV-406        	1000.0000   	TCV 	100.0000    	0.0000      	;
 ~@AV-407        	I-AV-407        	O-AV-407        	1000.0000   	TCV 	100.0000    	0.0000      	;
 ~@AV-408        	I-AV-408        	O-AV-408        	1000.0000   	TCV 	100.0000    	0.0000      	;
 ~@AV-409        	I-AV-409        	O-AV-409        	1000.0000   	TCV 	100.0000    	0.0000      	;
 ~@AV-41         	I-AV-41         	O-AV-41         	1000.0000   	TCV 	100.0000    	0.0000      	;
 ~@AV-413        	I-AV-413        	O-AV-413        	1000.0000   	TCV 	100.0000    	0.0000      	;
 ~@AV-415        	I-AV-415        	O-AV-415        	1000.0000   	TCV 	100.0000    	0.0000      	;
 ~@AV-416        	I-AV-416        	O-AV-416        	1000.0000   	TCV 	100.0000    	0.0000      	;
 ~@AV-417        	I-AV-417        	O-AV-417        	1000.0000   	TCV 	100.0000    	0.0000      	;
 ~@AV-418        	I-AV-418        	O-AV-418        	1000.0000   	TCV 	100.0000    	0.0000      	;
 ~@AV-419        	I-AV-419        	O-AV-419        	1000.0000   	TCV 	100.0000    	0.0000      	;
 ~@AV-421        	I-AV-421        	O-AV-421        	1000.0000   	TCV 	100.0000    	0.0000      	;
 ~@AV-423        	I-AV-423        	O-AV-423        	1000.0000   	TCV 	100.0000    	0.0000      	;
 ~@AV-424        	I-AV-424        	O-AV-424        	1000.0000   	TCV 	100.0000    	0.0000      	;
 ~@AV-425        	I-AV-425        	O-AV-425        	1000.0000   	TCV 	100.0000    	0.0000      	;
 ~@AV-426        	I-AV-426        	O-AV-426        	1000.0000   	TCV 	100.0000    	0.0000      	;
 ~@AV-429        	I-AV-429        	O-AV-429        	1000.0000   	TCV 	100.0000    	0.0000      	;
 ~@AV-43         	I-AV-43         	O-AV-43         	1000.0000   	TCV 	100.0000    	0.0000      	;
 ~@AV-431        	I-AV-431        	O-AV-431        	1000.0000   	TCV 	100.0000    	0.0000      	;
 ~@AV-432        	I-AV-432        	O-AV-432        	1000.0000   	TCV 	100.0000    	0.0000      	;
 ~@AV-435        	I-AV-435        	O-AV-435        	1000.0000   	TCV 	100.0000    	0.0000      	;
 ~@AV-436        	I-AV-436        	O-AV-436        	1000.0000   	TCV 	100.0000    	0.0000      	;
 ~@AV-438        	I-AV-438        	O-AV-438        	1000.0000   	TCV 	100.0000    	0.0000      	;
 ~@AV-44         	I-AV-44         	O-AV-44         	1000.0000   	TCV 	100.0000    	0.0000      	;
 ~@AV-440        	I-AV-440        	O-AV-440        	1000.0000   	TCV 	100.0000    	0.0000      	;
 ~@AV-442        	I-AV-442        	O-AV-442        	1000.0000   	TCV 	100.0000    	0.0000      	;
 ~@AV-444        	I-AV-444        	O-AV-444        	1000.0000   	TCV 	100.0000    	0.0000      	;
 ~@AV-445        	I-AV-445        	O-AV-445        	1000.0000   	TCV 	100.0000    	0.0000      	;
 ~@AV-446        	I-AV-446        	O-AV-446        	1000.0000   	TCV 	100.0000    	0.0000      	;
 ~@AV-450        	I-AV-450        	O-AV-450        	1000.0000   	TCV 	100.0000    	0.0000      	;
 ~@AV-451        	I-AV-451        	O-AV-451        	1000.0000   	TCV 	100.0000    	0.0000      	;
 ~@AV-452        	I-AV-452        	O-AV-452        	1000.0000   	TCV 	100.0000    	0.0000      	;
 ~@AV-453        	I-AV-453        	O-AV-453        	1000.0000   	TCV 	100.0000    	0.0000      	;
 ~@AV-454        	I-AV-454        	O-AV-454        	1000.0000   	TCV 	100.0000    	0.0000      	;
 ~@AV-455        	I-AV-455        	O-AV-455        	1000.0000   	TCV 	100.0000    	0.0000      	;
 ~@AV-456        	I-AV-456        	O-AV-456        	1000.0000   	TCV 	100.0000    	0.0000      	;
 ~@AV-46         	I-AV-46         	O-AV-46         	1000.0000   	TCV 	100.0000    	0.0000      	;
 ~@AV-460        	I-AV-460        	O-AV-460        	1000.0000   	TCV 	100.0000    	0.0000      	;
 ~@AV-462        	I-AV-462        	O-AV-462        	1000.0000   	TCV 	100.0000    	0.0000      	;
 ~@AV-465        	I-AV-465        	O-AV-465        	1000.0000   	TCV 	100.0000    	0.0000      	;
 ~@AV-467        	I-AV-467        	O-AV-467        	1000.0000   	TCV 	100.0000    	0.0000      	;
 ~@AV-469        	I-AV-469        	O-AV-469        	1000.0000   	TCV 	100.0000    	0.0000      	;
 ~@AV-47         	I-AV-47         	O-AV-47         	1000.0000   	TCV 	100.0000    	0.0000      	;
 ~@AV-470        	I-AV-470        	O-AV-470        	1000.0000   	TCV 	100.0000    	0.0000      	;
 ~@AV-471        	I-AV-471        	O-AV-471        	1000.0000   	TCV 	100.0000    	0.0000      	;
 ~@AV-472        	I-AV-472        	O-AV-472        	1000.0000   	TCV 	100.0000    	0.0000      	;
 ~@AV-473        	I-AV-473        	O-AV-473        	1000.0000   	TCV 	100.0000    	0.0000      	;
 ~@AV-474        	I-AV-474        	O-AV-474        	1000.0000   	TCV 	100.0000    	0.0000      	;
 ~@AV-475        	I-AV-475        	O-AV-475        	1000.0000   	TCV 	100.0000    	0.0000      	;
 ~@AV-477        	I-AV-477        	O-AV-477        	1000.0000   	TCV 	100.0000    	0.0000      	;
 ~@AV-478        	I-AV-478        	O-AV-478        	1000.0000   	TCV 	100.0000    	0.0000      	;
 ~@AV-479        	I-AV-479        	O-AV-479        	1000.0000   	TCV 	100.0000    	0.0000      	;
 ~@AV-480        	I-AV-480        	O-AV-480        	1000.0000   	TCV 	100.0000    	0.0000      	;
 ~@AV-481        	I-AV-481        	O-AV-481        	1000.0000   	TCV 	100.0000    	0.0000      	;
 ~@AV-482        	I-AV-482        	O-AV-482        	1000.0000   	TCV 	100.0000    	0.0000      	;
 ~@AV-483        	I-AV-483        	O-AV-483        	1000.0000   	TCV 	100.0000    	0.0000      	;
 ~@AV-485        	I-AV-485        	O-AV-485        	1000.0000   	TCV 	100.0000    	0.0000      	;
 ~@AV-487        	I-AV-487        	O-AV-487        	1000.0000   	TCV 	100.0000    	0.0000      	;
 ~@AV-488        	I-AV-488        	O-AV-488        	1000.0000   	TCV 	100.0000    	0.0000      	;
 ~@AV-489        	I-AV-489        	O-AV-489        	1000.0000   	TCV 	100.0000    	0.0000      	;
 ~@AV-49         	I-AV-49         	O-AV-49         	1000.0000   	TCV 	100.0000    	0.0000      	;
 ~@AV-490        	I-AV-490        	O-AV-490        	1000.0000   	TCV 	100.0000    	0.0000      	;
 ~@AV-493        	I-AV-493        	O-AV-493        	1000.0000   	TCV 	100.0000    	0.0000      	;
 ~@AV-494        	I-AV-494        	O-AV-494        	1000.0000   	TCV 	100.0000    	0.0000      	;
 ~@AV-495        	I-AV-495        	O-AV-495        	1000.0000   	TCV 	100.0000    	0.0000      	;
 ~@AV-496        	I-AV-496        	O-AV-496        	1000.0000   	TCV 	100.0000    	0.0000      	;
 ~@AV-497        	I-AV-497        	O-AV-497        	1000.0000   	TCV 	100.0000    	0.0000      	;
 ~@AV-498        	I-AV-498        	O-AV-498        	1000.0000   	TCV 	100.0000    	0.0000      	;
 ~@AV-499        	I-AV-499        	O-AV-499        	1000.0000   	TCV 	100.0000    	0.0000      	;
 ~@AV-5          	I-AV-5          	O-AV-5          	1000.0000   	TCV 	100.0000    	0.0000      	;
 ~@AV-50         	I-AV-50         	O-AV-50         	1000.0000   	TCV 	100.0000    	0.0000      	;
 ~@AV-503        	I-AV-503        	O-AV-503        	1000.0000   	TCV 	100.0000    	0.0000      	;
 ~@AV-505        	I-AV-505        	O-AV-505        	1000.0000   	TCV 	100.0000    	0.0000      	;
 ~@AV-506        	I-AV-506        	O-AV-506        	1000.0000   	TCV 	100.0000    	0.0000      	;
 ~@AV-507        	I-AV-507        	O-AV-507        	1000.0000   	TCV 	100.0000    	0.0000      	;
 ~@AV-509        	I-AV-509        	O-AV-509        	1000.0000   	TCV 	100.0000    	0.0000      	;
 ~@AV-51         	I-AV-51         	O-AV-51         	1000.0000   	TCV 	100.0000    	0.0000      	;
 ~@AV-510        	I-AV-510        	O-AV-510        	1000.0000   	TCV 	100.0000    	0.0000      	;
 ~@AV-511        	I-AV-511        	O-AV-511        	1000.0000   	TCV 	100.0000    	0.0000      	;
 ~@AV-514        	I-AV-514        	O-AV-514        	1000.0000   	TCV 	100.0000    	0.0000      	;
 ~@AV-515        	I-AV-515        	O-AV-515        	1000.0000   	TCV 	100.0000    	0.0000      	;
 ~@AV-516        	I-AV-516        	O-AV-516        	1000.0000   	TCV 	100.0000    	0.0000      	;
 ~@AV-518        	I-AV-518        	O-AV-518        	1000.0000   	TCV 	100.0000    	0.0000      	;
 ~@AV-519        	I-AV-519        	O-AV-519        	1000.0000   	TCV 	100.0000    	0.0000      	;
 ~@AV-52         	I-AV-52         	O-AV-52         	1000.0000   	TCV 	100.0000    	0.0000      	;
 ~@AV-520        	I-AV-520        	O-AV-520        	1000.0000   	TCV 	100.0000    	0.0000      	;
 ~@AV-522        	I-AV-522        	O-AV-522        	1000.0000   	TCV 	100.0000    	0.0000      	;
 ~@AV-523        	I-AV-523        	O-AV-523        	1000.0000   	TCV 	100.0000    	0.0000      	;
 ~@AV-524        	I-AV-524        	O-AV-524        	1000.0000   	TCV 	100.0000    	0.0000      	;
 ~@AV-525        	I-AV-525        	O-AV-525        	1000.0000   	TCV 	100.0000    	0.0000      	;
 ~@AV-526        	I-AV-526        	O-AV-526        	1000.0000   	TCV 	100.0000    	0.0000      	;
 ~@AV-527        	I-AV-527        	O-AV-527        	1000.0000   	TCV 	100.0000    	0.0000      	;
 ~@AV-528        	I-AV-528        	O-AV-528        	1000.0000   	TCV 	100.0000    	0.0000      	;
 ~@AV-529        	I-AV-529        	O-AV-529        	1000.0000   	TCV 	100.0000    	0.0000      	;
 ~@AV-530        	I-AV-530        	O-AV-530        	1000.0000   	TCV 	100.0000    	0.0000      	;
 ~@AV-531        	I-AV-531        	O-AV-531        	1000.0000   	TCV 	100.0000    	0.0000      	;
 ~@AV-532        	I-AV-532        	O-AV-532        	1000.0000   	TCV 	100.0000    	0.0000      	;
 ~@AV-533        	I-AV-533        	O-AV-533        	1000.0000   	TCV 	100.0000    	0.0000      	;
 ~@AV-534        	I-AV-534        	O-AV-534        	1000.0000   	TCV 	100.0000    	0.0000      	;
 ~@AV-535        	I-AV-535        	O-AV-535        	1000.0000   	TCV 	100.0000    	0.0000      	;
 ~@AV-536        	I-AV-536        	O-AV-536        	1000.0000   	TCV 	100.0000    	0.0000      	;
 ~@AV-537        	I-AV-537        	O-AV-537        	1000.0000   	TCV 	100.0000    	0.0000      	;
 ~@AV-539        	I-AV-539        	O-AV-539        	1000.0000   	TCV 	100.0000    	0.0000      	;
 ~@AV-540        	I-AV-540        	O-AV-540        	1000.0000   	TCV 	100.0000    	0.0000      	;
 ~@AV-541        	I-AV-541        	O-AV-541        	1000.0000   	TCV 	100.0000    	0.0000      	;
 ~@AV-542        	I-AV-542        	O-AV-542        	1000.0000   	TCV 	100.0000    	0.0000      	;
 ~@AV-543        	I-AV-543        	O-AV-543        	1000.0000   	TCV 	100.0000    	0.0000      	;
 ~@AV-545        	I-AV-545        	O-AV-545        	1000.0000   	TCV 	100.0000    	0.0000      	;
 ~@AV-546        	I-AV-546        	O-AV-546        	1000.0000   	TCV 	100.0000    	0.0000      	;
 ~@AV-548        	I-AV-548        	O-AV-548        	1000.0000   	TCV 	100.0000    	0.0000      	;
 ~@AV-549        	I-AV-549        	O-AV-549        	1000.0000   	TCV 	100.0000    	0.0000      	;
 ~@AV-55         	I-AV-55         	O-AV-55         	1000.0000   	TCV 	100.0000    	0.0000      	;
 ~@AV-550        	I-AV-550        	O-AV-550        	1000.0000   	TCV 	100.0000    	0.0000      	;
 ~@AV-551        	I-AV-551        	O-AV-551        	1000.0000   	TCV 	100.0000    	0.0000      	;
 ~@AV-552        	I-AV-552        	O-AV-552        	1000.0000   	TCV 	100.0000    	0.0000      	;
 ~@AV-554        	I-AV-554        	O-AV-554        	1000.0000   	TCV 	100.0000    	0.0000      	;
 ~@AV-557        	I-AV-557        	O-AV-557        	1000.0000   	TCV 	100.0000    	0.0000      	;
 ~@AV-559        	I-AV-559        	O-AV-559        	1000.0000   	TCV 	100.0000    	0.0000      	;
 ~@AV-56         	I-AV-56         	O-AV-56         	1000.0000   	TCV 	100.0000    	0.0000      	;
 ~@AV-562        	I-AV-562        	O-AV-562        	1000.0000   	TCV 	100.0000    	0.0000      	;
 ~@AV-563        	I-AV-563        	O-AV-563        	1000.0000   	TCV 	100.0000    	0.0000      	;
 ~@AV-564        	I-AV-564        	O-AV-564        	1000.0000   	TCV 	100.0000    	0.0000      	;
 ~@AV-568        	I-AV-568        	O-AV-568        	1000.0000   	TCV 	100.0000    	0.0000      	;
 ~@AV-569        	I-AV-569        	O-AV-569        	1000.0000   	TCV 	100.0000    	0.0000      	;
 ~@AV-57         	I-AV-57         	O-AV-57         	1000.0000   	TCV 	100.0000    	0.0000      	;
 ~@AV-572        	I-AV-572        	O-AV-572        	1000.0000   	TCV 	100.0000    	0.0000      	;
 ~@AV-574        	I-AV-574        	O-AV-574        	1000.0000   	TCV 	100.0000    	0.0000      	;
 ~@AV-576        	I-AV-576        	O-AV-576        	1000.0000   	TCV 	100.0000    	0.0000      	;
 ~@AV-577        	I-AV-577        	O-AV-577        	1000.0000   	TCV 	100.0000    	0.0000      	;
 ~@AV-579        	I-AV-579        	O-AV-579        	1000.0000   	TCV 	100.0000    	0.0000      	;
 ~@AV-58         	I-AV-58         	O-AV-58         	1000.0000   	TCV 	100.0000    	0.0000      	;
 ~@AV-581        	I-AV-581        	O-AV-581        	1000.0000   	TCV 	100.0000    	0.0000      	;
 ~@AV-582        	I-AV-582        	O-AV-582        	1000.0000   	TCV 	100.0000    	0.0000      	;
 ~@AV-583        	I-AV-583        	O-AV-583        	1000.0000   	TCV 	100.0000    	0.0000      	;
 ~@AV-584        	I-AV-584        	O-AV-584        	1000.0000   	TCV 	100.0000    	0.0000      	;
 ~@AV-585        	I-AV-585        	O-AV-585        	1000.0000   	TCV 	100.0000    	0.0000      	;
 ~@AV-586        	I-AV-586        	O-AV-586        	1000.0000   	TCV 	100.0000    	0.0000      	;
 ~@AV-589        	I-AV-589        	O-AV-589        	1000.0000   	TCV 	100.0000    	0.0000      	;
 ~@AV-590        	I-AV-590        	O-AV-590        	1000.0000   	TCV 	100.0000    	0.0000      	;
 ~@AV-591        	I-AV-591        	O-AV-591        	1000.0000   	TCV 	100.0000    	0.0000      	;
 ~@AV-593        	I-AV-593        	O-AV-593        	1000.0000   	TCV 	100.0000    	0.0000      	;
 ~@AV-594        	I-AV-594        	O-AV-594        	1000.0000   	TCV 	100.0000    	0.0000      	;
 ~@AV-595        	I-AV-595        	O-AV-595        	1000.0000   	TCV 	100.0000    	0.0000      	;
 ~@AV-597        	I-AV-597        	O-AV-597        	1000.0000   	TCV 	100.0000    	0.0000      	;
 ~@AV-598        	I-AV-598        	O-AV-598        	1000.0000   	TCV 	100.0000    	0.0000      	;
 ~@AV-599        	I-AV-599        	O-AV-599        	1000.0000   	TCV 	100.0000    	0.0000      	;
 ~@AV-6          	I-AV-6          	O-AV-6          	1000.0000   	TCV 	100.0000    	0.0000      	;
 ~@AV-60         	I-AV-60         	O-AV-60         	1000.0000   	TCV 	100.0000    	0.0000      	;
 ~@AV-600        	I-AV-600        	O-AV-600        	1000.0000   	TCV 	100.0000    	0.0000      	;
 ~@AV-603        	I-AV-603        	O-AV-603        	1000.0000   	TCV 	100.0000    	0.0000      	;
 ~@AV-604        	I-AV-604        	O-AV-604        	1000.0000   	TCV 	100.0000    	0.0000      	;
 ~@AV-605        	I-AV-605        	O-AV-605        	1000.0000   	TCV 	100.0000    	0.0000      	;
 ~@AV-606        	I-AV-606        	O-AV-606        	1000.0000   	TCV 	100.0000    	0.0000      	;
 ~@AV-609        	I-AV-609        	O-AV-609        	1000.0000   	TCV 	100.0000    	0.0000      	;
 ~@AV-61         	I-AV-61         	O-AV-61         	1000.0000   	TCV 	100.0000    	0.0000      	;
 ~@AV-611        	I-AV-611        	O-AV-611        	1000.0000   	TCV 	100.0000    	0.0000      	;
 ~@AV-613        	I-AV-613        	O-AV-613        	1000.0000   	TCV 	100.0000    	0.0000      	;
 ~@AV-616        	I-AV-616        	O-AV-616        	1000.0000   	TCV 	100.0000    	0.0000      	;
 ~@AV-617        	I-AV-617        	O-AV-617        	1000.0000   	TCV 	100.0000    	0.0000      	;
 ~@AV-618        	I-AV-618        	O-AV-618        	1000.0000   	TCV 	100.0000    	0.0000      	;
 ~@AV-619        	I-AV-619        	O-AV-619        	1000.0000   	TCV 	100.0000    	0.0000      	;
 ~@AV-62         	I-AV-62         	O-AV-62         	1000.0000   	TCV 	100.0000    	0.0000      	;
 ~@AV-621        	I-AV-621        	O-AV-621        	1000.0000   	TCV 	100.0000    	0.0000      	;
 ~@AV-622        	I-AV-622        	O-AV-622        	1000.0000   	TCV 	100.0000    	0.0000      	;
 ~@AV-624        	I-AV-624        	O-AV-624        	1000.0000   	TCV 	100.0000    	0.0000      	;
 ~@AV-625        	I-AV-625        	O-AV-625        	1000.0000   	TCV 	100.0000    	0.0000      	;
 ~@AV-627        	I-AV-627        	O-AV-627        	1000.0000   	TCV 	100.0000    	0.0000      	;
 ~@AV-628        	I-AV-628        	O-AV-628        	1000.0000   	TCV 	100.0000    	0.0000      	;
 ~@AV-630        	I-AV-630        	O-AV-630        	1000.0000   	TCV 	100.0000    	0.0000      	;
 ~@AV-631        	I-AV-631        	O-AV-631        	1000.0000   	TCV 	100.0000    	0.0000      	;
 ~@AV-632        	I-AV-632        	O-AV-632        	1000.0000   	TCV 	100.0000    	0.0000      	;
 ~@AV-633        	I-AV-633        	O-AV-633        	1000.0000   	TCV 	100.0000    	0.0000      	;
 ~@AV-634        	I-AV-634        	O-AV-634        	1000.0000   	TCV 	100.0000    	0.0000      	;
 ~@AV-635        	I-AV-635        	O-AV-635        	1000.0000   	TCV 	100.0000    	0.0000      	;
 ~@AV-636        	I-AV-636        	O-AV-636        	1000.0000   	TCV 	100.0000    	0.0000      	;
 ~@AV-637        	I-AV-637        	O-AV-637        	1000.0000   	TCV 	100.0000    	0.0000      	;
 ~@AV-638        	I-AV-638        	O-AV-638        	1000.0000   	TCV 	100.0000    	0.0000      	;
 ~@AV-64         	I-AV-64         	O-AV-64         	1000.0000   	TCV 	100.0000    	0.0000      	;
 ~@AV-641        	I-AV-641        	O-AV-641        	1000.0000   	TCV 	100.0000    	0.0000      	;
 ~@AV-642        	I-AV-642        	O-AV-642        	1000.0000   	TCV 	100.0000    	0.0000      	;
 ~@AV-643        	I-AV-643        	O-AV-643        	1000.0000   	TCV 	100.0000    	0.0000      	;
 ~@AV-646        	I-AV-646        	O-AV-646        	1000.0000   	TCV 	100.0000    	0.0000      	;
 ~@AV-647        	I-AV-647        	O-AV-647        	1000.0000   	TCV 	100.0000    	0.0000      	;
 ~@AV-648        	I-AV-648        	O-AV-648        	1000.0000   	TCV 	100.0000    	0.0000      	;
 ~@AV-649        	I-AV-649        	O-AV-649        	1000.0000   	TCV 	100.0000    	0.0000      	;
 ~@AV-650        	I-AV-650        	O-AV-650        	1000.0000   	TCV 	100.0000    	0.0000      	;
 ~@AV-654        	I-AV-654        	O-AV-654        	1000.0000   	TCV 	100.0000    	0.0000      	;
 ~@AV-655        	I-AV-655        	O-AV-655        	1000.0000   	TCV 	100.0000    	0.0000      	;
 ~@AV-656        	I-AV-656        	O-AV-656        	1000.0000   	TCV 	100.0000    	0.0000      	;
 ~@AV-657        	I-AV-657        	O-AV-657        	1000.0000   	TCV 	100.0000    	0.0000      	;
 ~@AV-659        	I-AV-659        	O-AV-659        	1000.0000   	TCV 	100.0000    	0.0000      	;
 ~@AV-66         	I-AV-66         	O-AV-66         	1000.0000   	TCV 	100.0000    	0.0000      	;
 ~@AV-660        	I-AV-660        	O-AV-660        	1000.0000   	TCV 	100.0000    	0.0000      	;
 ~@AV-661        	I-AV-661        	O-AV-661        	1000.0000   	TCV 	100.0000    	0.0000      	;
 ~@AV-662        	I-AV-662        	O-AV-662        	1000.0000   	TCV 	100.0000    	0.0000      	;
 ~@AV-663        	I-AV-663        	O-AV-663        	1000.0000   	TCV 	100.0000    	0.0000      	;
 ~@AV-665        	I-AV-665        	O-AV-665        	1000.0000   	TCV 	100.0000    	0.0000      	;
 ~@AV-666        	I-AV-666        	O-AV-666        	1000.0000   	TCV 	100.0000    	0.0000      	;
 ~@AV-667        	I-AV-667        	O-AV-667        	1000.0000   	TCV 	100.0000    	0.0000      	;
 ~@AV-669        	I-AV-669        	O-AV-669        	1000.0000   	TCV 	100.0000    	0.0000      	;
 ~@AV-67         	I-AV-67         	O-AV-67         	1000.0000   	TCV 	100.0000    	0.0000      	;
 ~@AV-671        	I-AV-671        	O-AV-671        	1000.0000   	TCV 	100.0000    	0.0000      	;
 ~@AV-672        	I-AV-672        	O-AV-672        	1000.0000   	TCV 	100.0000    	0.0000      	;
 ~@AV-674        	I-AV-674        	O-AV-674        	1000.0000   	TCV 	100.0000    	0.0000      	;
 ~@AV-675        	I-AV-675        	O-AV-675        	1000.0000   	TCV 	100.0000    	0.0000      	;
 ~@AV-677        	I-AV-677        	O-AV-677        	1000.0000   	TCV 	100.0000    	0.0000      	;
 ~@AV-678        	I-AV-678        	O-AV-678        	1000.0000   	TCV 	100.0000    	0.0000      	;
 ~@AV-679        	I-AV-679        	O-AV-679        	1000.0000   	TCV 	100.0000    	0.0000      	;
 ~@AV-680        	I-AV-680        	O-AV-680        	1000.0000   	TCV 	100.0000    	0.0000      	;
 ~@AV-681        	I-AV-681        	O-AV-681        	1000.0000   	TCV 	100.0000    	0.0000      	;
 ~@AV-682        	I-AV-682        	O-AV-682        	1000.0000   	TCV 	100.0000    	0.0000      	;
 ~@AV-683        	I-AV-683        	O-AV-683        	1000.0000   	TCV 	100.0000    	0.0000      	;
 ~@AV-684        	I-AV-684        	O-AV-684        	1000.0000   	TCV 	100.0000    	0.0000      	;
 ~@AV-685        	I-AV-685        	O-AV-685        	1000.0000   	TCV 	100.0000    	0.0000      	;
 ~@AV-686        	I-AV-686        	O-AV-686        	1000.0000   	TCV 	100.0000    	0.0000      	;
 ~@AV-688        	I-AV-688        	O-AV-688        	1000.0000   	TCV 	100.0000    	0.0000      	;
 ~@AV-689        	I-AV-689        	O-AV-689        	1000.0000   	TCV 	100.0000    	0.0000      	;
 ~@AV-691        	I-AV-691        	O-AV-691        	1000.0000   	TCV 	100.0000    	0.0000      	;
 ~@AV-692        	I-AV-692        	O-AV-692        	1000.0000   	TCV 	100.0000    	0.0000      	;
 ~@AV-693        	I-AV-693        	O-AV-693        	1000.0000   	TCV 	100.0000    	0.0000      	;
 ~@AV-694        	I-AV-694        	O-AV-694        	1000.0000   	TCV 	100.0000    	0.0000      	;
 ~@AV-695        	I-AV-695        	O-AV-695        	1000.0000   	TCV 	100.0000    	0.0000      	;
 ~@AV-696        	I-AV-696        	O-AV-696        	1000.0000   	TCV 	100.0000    	0.0000      	;
 ~@AV-7          	I-AV-7          	O-AV-7          	1000.0000   	TCV 	100.0000    	0.0000      	;
 ~@AV-701        	I-AV-701        	O-AV-701        	1000.0000   	TCV 	100.0000    	0.0000      	;
 ~@AV-703        	I-AV-703        	O-AV-703        	1000.0000   	TCV 	100.0000    	0.0000      	;
 ~@AV-704        	I-AV-704        	O-AV-704        	1000.0000   	TCV 	100.0000    	0.0000      	;
 ~@AV-705        	I-AV-705        	O-AV-705        	1000.0000   	TCV 	100.0000    	0.0000      	;
 ~@AV-706        	I-AV-706        	O-AV-706        	1000.0000   	TCV 	100.0000    	0.0000      	;
 ~@AV-707        	I-AV-707        	O-AV-707        	1000.0000   	TCV 	100.0000    	0.0000      	;
 ~@AV-709        	I-AV-709        	O-AV-709        	1000.0000   	TCV 	100.0000    	0.0000      	;
 ~@AV-710        	I-AV-710        	O-AV-710        	1000.0000   	TCV 	100.0000    	0.0000      	;
 ~@AV-711        	I-AV-711        	O-AV-711        	1000.0000   	TCV 	100.0000    	0.0000      	;
 ~@AV-713        	I-AV-713        	O-AV-713        	1000.0000   	TCV 	100.0000    	0.0000      	;
 ~@AV-714        	I-AV-714        	O-AV-714        	1000.0000   	TCV 	100.0000    	0.0000      	;
 ~@AV-716        	I-AV-716        	O-AV-716        	1000.0000   	TCV 	100.0000    	0.0000      	;
 ~@AV-717        	I-AV-717        	O-AV-717        	1000.0000   	TCV 	100.0000    	0.0000      	;
 ~@AV-718        	I-AV-718        	O-AV-718        	1000.0000   	TCV 	100.0000    	0.0000      	;
 ~@AV-720        	I-AV-720        	O-AV-720        	1000.0000   	TCV 	100.0000    	0.0000      	;
 ~@AV-721        	I-AV-721        	O-AV-721        	1000.0000   	TCV 	100.0000    	0.0000      	;
 ~@AV-722        	I-AV-722        	O-AV-722        	1000.0000   	TCV 	100.0000    	0.0000      	;
 ~@AV-73         	I-AV-73         	O-AV-73         	1000.0000   	TCV 	100.0000    	0.0000      	;
 ~@AV-730        	I-AV-730        	O-AV-730        	1000.0000   	TCV 	100.0000    	0.0000      	;
 ~@AV-731        	I-AV-731        	O-AV-731        	1000.0000   	TCV 	100.0000    	0.0000      	;
 ~@AV-733        	I-AV-733        	O-AV-733        	1000.0000   	TCV 	100.0000    	0.0000      	;
 ~@AV-735        	I-AV-735        	O-AV-735        	1000.0000   	TCV 	100.0000    	0.0000      	;
 ~@AV-736        	I-AV-736        	O-AV-736        	1000.0000   	TCV 	100.0000    	0.0000      	;
 ~@AV-737        	I-AV-737        	O-AV-737        	1000.0000   	TCV 	100.0000    	0.0000      	;
 ~@AV-738        	I-AV-738        	O-AV-738        	1000.0000   	TCV 	100.0000    	0.0000      	;
 ~@AV-739        	I-AV-739        	O-AV-739        	1000.0000   	TCV 	100.0000    	0.0000      	;
 ~@AV-74         	I-AV-74         	O-AV-74         	1000.0000   	TCV 	100.0000    	0.0000      	;
 ~@AV-740        	I-AV-740        	O-AV-740        	1000.0000   	TCV 	100.0000    	0.0000      	;
 ~@AV-78         	I-AV-78         	O-AV-78         	1000.0000   	TCV 	100.0000    	0.0000      	;
 ~@AV-8          	I-AV-8          	O-AV-8          	1000.0000   	TCV 	100.0000    	0.0000      	;
 ~@AV-80         	I-AV-80         	O-AV-80         	1000.0000   	TCV 	100.0000    	0.0000      	;
 ~@AV-82         	I-AV-82         	O-AV-82         	1000.0000   	TCV 	100.0000    	0.0000      	;
 ~@AV-84         	I-AV-84         	O-AV-84         	1000.0000   	TCV 	100.0000    	0.0000      	;
 ~@AV-85         	I-AV-85         	O-AV-85         	1000.0000   	TCV 	100.0000    	0.0000      	;
 ~@AV-86         	I-AV-86         	O-AV-86         	1000.0000   	TCV 	100.0000    	0.0000      	;
 ~@AV-89         	I-AV-89         	O-AV-89         	1000.0000   	TCV 	100.0000    	0.0000      	;
 ~@AV-91         	I-AV-91         	O-AV-91         	1000.0000   	TCV 	100.0000    	0.0000      	;
 ~@AV-93         	I-AV-93         	O-AV-93         	1000.0000   	TCV 	100.0000    	0.0000      	;
 ~@AV-94         	I-AV-94         	O-AV-94         	1000.0000   	TCV 	100.0000    	0.0000      	;
 ~@AV-99         	I-AV-99         	O-AV-99         	1000.0000   	TCV 	100.0000    	0.0000      	;

[TAGS]

[DEMANDS]
;Junction        	Demand      	Pattern         	Category

[STATUS]
;ID              	Status/Setting

[PATTERNS]
;ID              	Multipliers
;
 1               	0.3300      	0.2500      	0.2090      	0.2090      	0.2590      	0.3600      
 1               	0.5290      	0.9100      	1.2000      	1.2990      	1.3400      	1.3400      
 1               	1.3200      	1.2690      	1.2500      	1.2500      	1.2790      	1.3700      
 1               	1.5190      	1.7000      	1.7500      	1.6690      	0.8990      	0.4790      
;
 11              	1.0000      
;
 ENRG1           	1.0000      	1.0000      	1.0000      	1.0000      	1.0000      	1.0000      
 ENRG1           	1.0000      	1.0000      	1.0000      	1.0000      	1.0000      	1.0000      
 ENRG1           	1.0000      	1.0000      	1.0000      	1.0000      	1.0000      	1.0000      
 ENRG1           	1.0000      	1.0000      	1.0000      	1.0000      	1.0000      

[CURVES]
;ID              	X-Value     	Y-Value

[CONTROLS]
 LINK ~@Pump-2 1.0000 IF NODE T-1 BELOW 137.6590
 LINK ~@Pump-2 0.0000 IF NODE T-1 ABOVE 157.6590
 LINK ~@Pump-4 1.0000 IF NODE T-5 BELOW 86.2010
 LINK ~@Pump-4 0.0000 IF NODE T-5 ABOVE 106.2010



[RULES]


[ENERGY]
 Global Efficiency  	75.0000
 Global Price       	0
 Global Pattern     	ENRG1
 Demand Charge      	0.0000

[EMITTERS]
;Junction        	Coefficient

[QUALITY]
;Node            	InitQual

[SOURCES]
;Node            	Type        	Quality     	Pattern

[REACTIONS]
;Type     	Pipe/Tank       	Coefficient


[REACTIONS]
 Order Bulk            	0.00
 Order Tank            	0.00
 Order Wall            	0
 Global Bulk           	0.000000
 Global Wall           	0.000000
 Limiting Potential    	0
 Roughness Correlation 	0

[MIXING]
;Tank            	Model

[TIMES]
 Duration           	24:00 
 Hydraulic Timestep 	1:00 
 Quality Timestep   	0:05 
 Pattern Timestep   	1:00 
 Pattern Start      	0:00 
 Report Timestep    	1:00 
 Report Start       	0:00 
 Start ClockTime    	0:00:00
 Statistic          	NONE

[REPORT]
 Status             	Full
 Summary            	No
 Page               	0

[OPTIONS]
 Units              	GPM
 Headloss           	H-W
 Specific Gravity   	1.000000
 Viscosity          	1.000000
 Trials             	100
 Accuracy           	0.00010000
 CHECKFREQ          	2
 MAXCHECK           	10
 DAMPLIMIT          	0.00000000
 Unbalanced         	Continue 10
 Pattern            	1
 Demand Multiplier  	1.0000
 Emitter Exponent   	0.5000
 Quality            	AGE mg/L
 Diffusivity        	0.050000
 Tolerance          	0.01000000

[COORDINATES]
;Node            	X-Coord           	Y-Coord
O-AV-100        	5367284.740       	3893906.000       
I-AV-101        	5381578.410       	3890390.000       
O-AV-105        	5367332.570       	3892402.000       
O-AV-106        	5367475.660       	3892246.000       
I-AV-107        	5367213.270       	3892267.000       
O-AV-108        	5366006.030       	3893622.000       
I-AV-109        	5365432.830       	3893448.000       
O-AV-110        	5365700.250       	3893307.000       
I-AV-111        	5365146.300       	3893912.000       
I-AV-112        	5384919.110       	3890653.000       
I-AV-113        	5382818.880       	3890865.000       
O-AV-114        	5364640.300       	3893990.000       
O-AV-115        	5364321.490       	3894319.000       
O-AV-12         	5371801.620       	3890864.000       
O-AV-122        	5359250.730       	3896669.000       
I-AV-123        	5359804.760       	3896417.000       
I-AV-125        	5366159.700       	3895463.000       
I-AV-126        	5364731.510       	3896367.000       
I-AV-127        	5364297.150       	3896591.000       
O-AV-128        	5363682.490       	3893738.000       
O-AV-129        	5364274.120       	3893240.000       
I-AV-130        	5364532.740       	3893440.000       
I-AV-131        	5364880.270       	3893808.000       
I-AV-134        	5363056.260       	3891869.000       
O-AV-135        	5382226.060       	3892932.000       
I-AV-136        	5362431.230       	3891999.000       
I-AV-137        	5363670.550       	3891340.000       
I-AV-138        	5363486.350       	3891708.000       
I-AV-139        	5363916.380       	3891564.000       
I-AV-142        	5364712.910       	3891372.000       
O-AV-143        	5364923.200       	3891205.000       
O-AV-144        	5364634.410       	3891029.000       
O-AV-145        	5365427.650       	3891212.000       
O-AV-146        	5380034.730       	3891867.000       
I-AV-147        	5365159.680       	3890757.000       
I-AV-149        	5365672.570       	3891130.000       
I-AV-150        	5365343.640       	3890589.000       
O-AV-152        	5364941.640       	3891594.000       
O-AV-153        	5365191.950       	3891599.000       
O-AV-155        	5365049.520       	3891870.000       
O-AV-156        	5365174.010       	3892127.000       
O-AV-158        	5364773.220       	3892187.000       
O-AV-16         	5372336.660       	3890669.000       
O-AV-160        	5364910.800       	3892786.000       
O-AV-162        	5366145.250       	3892774.000       
I-AV-163        	5366327.230       	3892693.000       
I-AV-165        	5365906.690       	3892734.000       
I-AV-166        	5367389.070       	3893516.000       
O-AV-168        	5379967.950       	3892222.000       
I-AV-169        	5368836.090       	3892326.000       
I-AV-170        	5369222.580       	3892368.000       
I-AV-171        	5369046.300       	3891943.000       
I-AV-173        	5368365.700       	3891265.000       
O-AV-174        	5369588.470       	3891389.000       
I-AV-175        	5369641.880       	3890991.000       
I-AV-177        	5369563.220       	3891676.000       
I-AV-178        	5369713.040       	3891863.000       
I-AV-179        	5379502.480       	3891300.000       
I-AV-18         	5372560.410       	3890953.000       
I-AV-180        	5369976.950       	3891714.000       
I-AV-181        	5370264.130       	3891688.000       
O-AV-183        	5370102.650       	3892182.000       
O-AV-185        	5370513.300       	3892214.000       
I-AV-186        	5370386.850       	3892847.000       
I-AV-189        	5371120.410       	3893059.000       
I-AV-190        	5379123.070       	3890918.000       
I-AV-191        	5370648.390       	3892466.000       
O-AV-194        	5370058.010       	3890843.000       
I-AV-195        	5375599.580       	3892213.000       
O-AV-196        	5379155.550       	3895860.000       
O-AV-198        	5366423.260       	3889737.000       
I-AV-199        	5365991.440       	3889690.000       
I-AV-200        	5366130.700       	3889484.000       
I-AV-201        	5378823.630       	3891074.000       
I-AV-203        	5365750.710       	3889199.000       
O-AV-204        	5366049.840       	3889174.000       
I-AV-205        	5366551.350       	3889470.000       
O-AV-206        	5366743.310       	3889666.000       
I-AV-208        	5366573.350       	3888970.000       
O-AV-209        	5366582.840       	3888591.000       
I-AV-211        	5366984.130       	3889278.000       
I-AV-212        	5378525.610       	3891806.000       
I-AV-215        	5367897.310       	3889125.000       
O-AV-216        	5367232.360       	3889004.000       
I-AV-217        	5367170.180       	3888745.000       
O-AV-218        	5368052.420       	3888890.000       
I-AV-219        	5368175.830       	3889288.000       
I-AV-22         	5372866.010       	3891014.000       
I-AV-222        	5367897.900       	3888533.000       
O-AV-223        	5385060.070       	3890214.000       
O-AV-224        	5377876.860       	3890714.000       
I-AV-225        	5367187.210       	3888413.000       
I-AV-226        	5367246.790       	3888145.000       
I-AV-228        	5368133.450       	3888207.000       
I-AV-229        	5367820.630       	3889620.000       
O-AV-231        	5369786.090       	3889291.000       
O-AV-233        	5370166.030       	3888705.000       
O-AV-234        	5369895.130       	3888587.000       
I-AV-235        	5377600.850       	3890577.000       
I-AV-236        	5369689.710       	3888554.000       
O-AV-237        	5369676.700       	3888681.000       
I-AV-238        	5369199.040       	3888703.000       
I-AV-239        	5369091.680       	3888131.000       
I-AV-241        	5368645.500       	3888495.000       
O-AV-243        	5370240.340       	3887314.000       
I-AV-244        	5368908.980       	3887224.000       
O-AV-245        	5369186.070       	3886855.000       
O-AV-246        	5376893.200       	3890866.000       
I-AV-25         	5373328.560       	3890612.000       
O-AV-250        	5371178.090       	3886767.000       
O-AV-252        	5371523.320       	3886944.000       
O-AV-253        	5371727.230       	3887211.000       
O-AV-254        	5371219.040       	3886478.000       
O-AV-255        	5371669.550       	3887621.000       
I-AV-256        	5371940.490       	3888327.000       
I-AV-257        	5377244.640       	3890615.000       
O-AV-258        	5371462.220       	3888168.000       
I-AV-259        	5372436.390       	3888204.000       
O-AV-26         	5372986.650       	3890329.000       
I-AV-260        	5372617.190       	3888258.000       
O-AV-261        	5372358.060       	3888023.000       
I-AV-262        	5372266.800       	3887828.000       
O-AV-263        	5372139.140       	3887683.000       
I-AV-265        	5372846.810       	3887610.000       
O-AV-266        	5373087.800       	3887761.000       
O-AV-267        	5372716.260       	3887837.000       
I-AV-268        	5377159.090       	3890416.000       
I-AV-269        	5373049.410       	3887428.000       
O-AV-27         	5373048.120       	3890565.000       
O-AV-271        	5373406.870       	3887740.000       
O-AV-273        	5373863.700       	3887887.000       
O-AV-274        	5373995.830       	3887745.000       
O-AV-275        	5373799.980       	3886753.000       
O-AV-276        	5373562.920       	3886633.000       
O-AV-277        	5374183.230       	3886733.000       
I-AV-279        	5376971.130       	3890597.000       
I-AV-28         	5373390.300       	3891278.000       
O-AV-281        	5374849.230       	3887527.000       
O-AV-282        	5374646.600       	3887146.000       
O-AV-283        	5374872.580       	3887280.000       
O-AV-286        	5375104.750       	3887835.000       
I-AV-287        	5375144.300       	3887685.000       
I-AV-290        	5377150.550       	3890857.000       
I-AV-291        	5375149.800       	3887309.000       
O-AV-292        	5375386.490       	3887614.000       
O-AV-293        	5375702.340       	3887491.000       
O-AV-294        	5375468.720       	3887175.000       
O-AV-296        	5375171.930       	3886568.000       
O-AV-297        	5375774.450       	3886932.000       
I-AV-298        	5375975.550       	3887281.000       
O-AV-299        	5375217.900       	3888232.000       
I-AV-3          	5373567.730       	3891679.000       
I-AV-302        	5374735.800       	3888045.000       
O-AV-305        	5374410.100       	3887615.000       
O-AV-306        	5374494.920       	3887932.000       
I-AV-307        	5374540.740       	3887832.000       
O-AV-308        	5374669.900       	3888261.000       
O-AV-31         	5373743.110       	3890425.000       
I-AV-310        	5374951.370       	3888269.000       
I-AV-312        	5376984.770       	3890337.000       
O-AV-313        	5374157.980       	3888211.000       
I-AV-315        	5374298.170       	3888060.000       
I-AV-319        	5373907.730       	3888222.000       
O-AV-32         	5373857.330       	3890820.000       
O-AV-320        	5373587.920       	3888119.000       
O-AV-321        	5374339.250       	3888648.000       
O-AV-322        	5374430.650       	3888474.000       
I-AV-323        	5376809.190       	3891144.000       
I-AV-325        	5374093.430       	3888640.000       
I-AV-327        	5373816.270       	3888896.000       
I-AV-330        	5373937.610       	3888601.000       
I-AV-334        	5384936.720       	3889801.000       
O-AV-335        	5377277.500       	3891536.000       
O-AV-338        	5373899.550       	3888127.000       
I-AV-341        	5373351.800       	3889390.000       
O-AV-342        	5373604.870       	3889200.000       
O-AV-343        	5373513.210       	3889566.000       
I-AV-344        	5373480.000       	3889886.000       
I-AV-345        	5373286.130       	3889506.000       
O-AV-346        	5377057.550       	3891529.000       
O-AV-348        	5373893.870       	3889396.000       
O-AV-349        	5373959.600       	3889272.000       
O-AV-352        	5374167.020       	3889292.000       
O-AV-354        	5374121.830       	3889115.000       
O-AV-355        	5374315.570       	3889029.000       
O-AV-357        	5377211.500       	3891776.000       
O-AV-358        	5374297.200       	3888847.000       
O-AV-359        	5374468.250       	3889151.000       
O-AV-36         	5373983.840       	3890585.000       
O-AV-360        	5374656.830       	3889076.000       
O-AV-361        	5374370.340       	3890066.000       
O-AV-363        	5374230.990       	3889836.000       
I-AV-364        	5374279.970       	3889740.000       
I-AV-366        	5373994.870       	3889032.000       
O-AV-369        	5374913.470       	3889765.000       
O-AV-37         	5373306.780       	3890332.000       
O-AV-370        	5374663.720       	3889550.000       
O-AV-371        	5375179.360       	3889578.000       
I-AV-372        	5375189.570       	3889314.000       
I-AV-374        	5375456.570       	3889386.000       
O-AV-375        	5375607.990       	3889595.000       
I-AV-376        	5375786.630       	3889634.000       
I-AV-377        	5376353.280       	3890657.000       
O-AV-378        	5376152.790       	3890400.000       
O-AV-379        	5376998.100       	3892816.000       
I-AV-380        	5376303.330       	3890464.000       
I-AV-381        	5375875.710       	3890655.000       
I-AV-382        	5376087.860       	3890581.000       
O-AV-383        	5375832.140       	3890565.000       
O-AV-384        	5375394.710       	3891863.000       
I-AV-385        	5375376.350       	3891306.000       
O-AV-388        	5374944.530       	3890203.000       
I-AV-389        	5376128.030       	3889496.000       
O-AV-39         	5373781.650       	3890175.000       
I-AV-390        	5376669.800       	3892392.000       
I-AV-391        	5376062.630       	3889344.000       
I-AV-393        	5376182.280       	3889254.000       
O-AV-398        	5376328.620       	3889058.000       
I-AV-40         	5373546.690       	3889732.000       
O-AV-401        	5375996.350       	3892371.000       
O-AV-402        	5374869.480       	3888872.000       
O-AV-403        	5375115.750       	3888914.000       
I-AV-404        	5374938.260       	3888741.000       
I-AV-405        	5376646.850       	3888339.000       
I-AV-406        	5376411.080       	3888382.000       
O-AV-407        	5376509.600       	3888644.000       
I-AV-408        	5376626.620       	3888533.000       
O-AV-409        	5376490.410       	3888457.000       
I-AV-41         	5373785.990       	3889810.000       
I-AV-413        	5376950.030       	3887950.000       
O-AV-415        	5376923.390       	3888942.000       
O-AV-416        	5376530.290       	3889231.000       
O-AV-417        	5376712.740       	3889169.000       
I-AV-418        	5376420.250       	3889497.000       
I-AV-419        	5376843.130       	3889095.000       
O-AV-421        	5377065.740       	3889213.000       
I-AV-423        	5376122.840       	3892312.000       
O-AV-424        	5377023.370       	3889554.000       
O-AV-425        	5377145.700       	3889376.000       
O-AV-426        	5376945.210       	3890018.000       
O-AV-429        	5377272.520       	3889858.000       
I-AV-43         	5373883.770       	3889524.000       
I-AV-431        	5377780.770       	3889638.000       
O-AV-432        	5378080.910       	3889456.000       
I-AV-435        	5377731.600       	3889335.000       
I-AV-436        	5377684.090       	3889083.000       
I-AV-438        	5377896.900       	3888960.000       
O-AV-44         	5374161.820       	3890018.000       
O-AV-440        	5378287.560       	3888919.000       
I-AV-442        	5378094.510       	3889090.000       
I-AV-444        	5378116.760       	3888492.000       
O-AV-445        	5385356.520       	3889679.000       
I-AV-446        	5376194.950       	3892212.000       
O-AV-450        	5377972.660       	3887742.000       
I-AV-451        	5377197.250       	3887845.000       
O-AV-452        	5377214.290       	3887338.000       
O-AV-453        	5377388.450       	3887188.000       
O-AV-454        	5377307.290       	3886931.000       
O-AV-455        	5377153.550       	3886697.000       
I-AV-456        	5376909.150       	3886329.000       
O-AV-46         	5383423.150       	3890646.000       
I-AV-460        	5376923.460       	3886607.000       
O-AV-462        	5375284.550       	3886096.000       
O-AV-465        	5374468.450       	3886632.000       
O-AV-467        	5374634.490       	3886834.000       
O-AV-469        	5373629.580       	3886433.000       
I-AV-47         	5372146.530       	3889653.000       
O-AV-470        	5373263.310       	3886240.000       
I-AV-471        	5372876.060       	3886234.000       
O-AV-472        	5372959.140       	3886821.000       
O-AV-473        	5372927.360       	3886538.000       
I-AV-474        	5372591.790       	3886512.000       
O-AV-475        	5372315.380       	3886420.000       
O-AV-477        	5372434.510       	3886929.000       
O-AV-478        	5372020.310       	3887058.000       
I-AV-479        	5375565.500       	3892093.000       
I-AV-480        	5372326.280       	3887078.000       
I-AV-481        	5371238.550       	3886210.000       
I-AV-482        	5371723.300       	3886532.000       
O-AV-483        	5371738.040       	3886254.000       
I-AV-485        	5372331.370       	3886075.000       
I-AV-487        	5372623.690       	3885519.000       
O-AV-488        	5372458.170       	3885632.000       
O-AV-489        	5372027.460       	3885550.000       
O-AV-49         	5371630.340       	3889604.000       
O-AV-490        	5376012.580       	3891732.000       
I-AV-493        	5370951.950       	3885234.000       
I-AV-494        	5370721.000       	3885519.000       
I-AV-495        	5370242.780       	3885130.000       
I-AV-496        	5370266.930       	3884445.000       
O-AV-497        	5370614.840       	3885714.000       
O-AV-498        	5369621.210       	3885811.000       
O-AV-499        	5369730.970       	3886114.000       
I-AV-5          	5373626.510       	3891460.000       
I-AV-50         	5371889.630       	3889283.000       
O-AV-503        	5369245.290       	3885383.000       
I-AV-505        	5368734.150       	3885043.000       
I-AV-506        	5368576.280       	3885492.000       
O-AV-507        	5368661.930       	3886016.000       
O-AV-509        	5369026.980       	3884641.000       
I-AV-51         	5371718.430       	3888887.000       
I-AV-510        	5369073.310       	3884334.000       
O-AV-511        	5368721.740       	3884416.000       
I-AV-514        	5367782.930       	3884906.000       
O-AV-515        	5367468.620       	3884602.000       
I-AV-516        	5365636.510       	3886191.000       
O-AV-518        	5365980.740       	3886352.000       
O-AV-519        	5366236.150       	3886207.000       
O-AV-52         	5372226.810       	3889344.000       
I-AV-520        	5365182.980       	3886123.000       
I-AV-522        	5365359.840       	3885880.000       
O-AV-523        	5375781.100       	3891682.000       
O-AV-524        	5366920.700       	3886951.000       
O-AV-525        	5367665.490       	3887039.000       
O-AV-526        	5367391.810       	3887426.000       
O-AV-527        	5367082.260       	3887958.000       
O-AV-528        	5366703.120       	3887887.000       
O-AV-529        	5365724.320       	3888818.000       
I-AV-530        	5363978.710       	3889431.000       
O-AV-531        	5364009.720       	3888831.000       
I-AV-532        	5363310.050       	3890660.000       
I-AV-533        	5366770.160       	3880234.000       
O-AV-534        	5375913.250       	3891542.000       
O-AV-535        	5366810.300       	3880523.000       
I-AV-536        	5366541.520       	3880788.000       
I-AV-537        	5366315.400       	3881107.000       
I-AV-539        	5365581.730       	3881583.000       
I-AV-540        	5365829.700       	3881729.000       
I-AV-541        	5365433.760       	3881760.000       
O-AV-542        	5365775.480       	3882260.000       
O-AV-543        	5365330.690       	3882573.000       
O-AV-545        	5376093.550       	3891310.000       
I-AV-546        	5364975.200       	3882638.000       
I-AV-548        	5365037.450       	3883200.000       
I-AV-549        	5364872.430       	3883082.000       
O-AV-55         	5371969.410       	3888504.000       
I-AV-550        	5365328.080       	3883870.000       
I-AV-551        	5365584.120       	3884026.000       
I-AV-552        	5366283.470       	3884105.000       
I-AV-554        	5366548.600       	3883930.000       
I-AV-557        	5376237.820       	3891404.000       
O-AV-559        	5366275.610       	3884526.000       
I-AV-56         	5371387.680       	3889206.000       
O-AV-562        	5365785.300       	3885241.000       
O-AV-563        	5365754.370       	3885022.000       
O-AV-564        	5363777.250       	3883333.000       
O-AV-568        	5376326.920       	3891549.000       
O-AV-569        	5363815.570       	3882648.000       
I-AV-57         	5380875.060       	3890428.000       
I-AV-572        	5364119.970       	3882208.000       
O-AV-574        	5364415.490       	3881810.000       
O-AV-576        	5364869.680       	3881594.000       
I-AV-577        	5364455.340       	3881458.000       
O-AV-579        	5376497.200       	3891625.000       
I-AV-58         	5371307.410       	3888763.000       
I-AV-581        	5365119.200       	3880817.000       
I-AV-582        	5365413.510       	3880755.000       
I-AV-583        	5366017.830       	3879797.000       
O-AV-584        	5364961.320       	3879707.000       
O-AV-585        	5364522.790       	3880127.000       
I-AV-586        	5364788.940       	3880336.000       
I-AV-589        	5364803.080       	3880145.000       
O-AV-590        	5376727.000       	3891679.000       
I-AV-591        	5364839.840       	3879345.000       
I-AV-593        	5364473.230       	3879678.000       
I-AV-594        	5363880.280       	3880831.000       
I-AV-595        	5364234.530       	3880862.000       
O-AV-597        	5363967.980       	3881083.000       
I-AV-598        	5363982.360       	3879908.000       
O-AV-599        	5363820.540       	3879766.000       
I-AV-6          	5373956.020       	3891681.000       
I-AV-60         	5370846.860       	3888645.000       
I-AV-600        	5376294.790       	3893568.000       
I-AV-603        	5363478.530       	3878061.000       
O-AV-604        	5362844.070       	3879844.000       
O-AV-605        	5362958.150       	3877973.000       
O-AV-606        	5362490.010       	3878226.000       
O-AV-609        	5362732.910       	3878340.000       
O-AV-61         	5370480.570       	3888803.000       
I-AV-611        	5375958.600       	3893720.000       
O-AV-613        	5362430.700       	3880172.000       
O-AV-616        	5362406.590       	3879894.000       
I-AV-617        	5361814.380       	3879996.000       
I-AV-618        	5361776.530       	3880363.000       
I-AV-619        	5361923.010       	3880454.000       
O-AV-62         	5370246.170       	3888857.000       
O-AV-621        	5362544.010       	3880711.000       
I-AV-622        	5375930.920       	3893507.000       
O-AV-624        	5362202.920       	3881311.000       
I-AV-625        	5362049.000       	3881059.000       
O-AV-627        	5361975.450       	3881400.000       
I-AV-628        	5363216.120       	3881550.000       
I-AV-630        	5363350.290       	3881950.000       
O-AV-631        	5363322.520       	3882328.000       
O-AV-632        	5363695.360       	3882165.000       
I-AV-633        	5375359.850       	3893405.000       
O-AV-634        	5361497.130       	3879955.000       
O-AV-635        	5361328.370       	3880177.000       
O-AV-636        	5361229.590       	3880470.000       
I-AV-637        	5360963.320       	3880460.000       
I-AV-638        	5360866.360       	3880728.000       
O-AV-64         	5370778.050       	3889327.000       
I-AV-641        	5380351.830       	3887679.000       
I-AV-642        	5379773.760       	3887836.000       
O-AV-643        	5379507.270       	3887554.000       
I-AV-646        	5378441.990       	3887417.000       
I-AV-647        	5378473.260       	3885858.000       
I-AV-648        	5378986.810       	3885649.000       
I-AV-649        	5379034.190       	3885949.000       
I-AV-650        	5378346.160       	3886165.000       
I-AV-654        	5378786.140       	3885263.000       
I-AV-655        	5375250.340       	3893163.000       
I-AV-656        	5363575.860       	3890418.000       
I-AV-657        	5372219.280       	3899550.000       
O-AV-659        	5373288.870       	3899542.000       
O-AV-66         	5369613.480       	3890379.000       
I-AV-660        	5373039.610       	3898989.000       
I-AV-661        	5373953.010       	3898974.000       
O-AV-662        	5374678.130       	3899199.000       
O-AV-663        	5374203.030       	3898319.000       
I-AV-665        	5370884.520       	3899137.000       
O-AV-666        	5386570.390       	3888609.000       
I-AV-667        	5375356.860       	3892982.000       
O-AV-669        	5373447.020       	3897743.000       
O-AV-67         	5369782.170       	3890861.000       
O-AV-671        	5373878.610       	3897418.000       
O-AV-672        	5374352.090       	3896187.000       
O-AV-674        	5373516.600       	3895324.000       
O-AV-675        	5370792.260       	3895358.000       
I-AV-677        	5367408.140       	3880643.000       
O-AV-678        	5374817.060       	3893007.000       
I-AV-679        	5370321.080       	3880657.000       
I-AV-680        	5367240.080       	3878729.000       
I-AV-681        	5362516.720       	3877220.000       
O-AV-682        	5366097.540       	3875949.000       
I-AV-683        	5361241.990       	3873890.000       
O-AV-684        	5362744.090       	3873791.000       
O-AV-685        	5358265.020       	3868963.000       
O-AV-686        	5355269.570       	3862365.000       
O-AV-688        	5352852.820       	3853817.000       
I-AV-689        	5374582.230       	3892964.000       
I-AV-691        	5357692.140       	3897797.000       
I-AV-692        	5369287.350       	3883738.000       
O-AV-693        	5368556.940       	3882927.000       
O-AV-694        	5368886.690       	3883026.000       
O-AV-695        	5368905.880       	3882701.000       
I-AV-696        	5368555.670       	3882644.000       
I-AV-7          	5373967.860       	3891506.000       
O-AV-701        	5369683.090       	3882269.000       
I-AV-703        	5370682.920       	3882799.000       
O-AV-704        	5371096.160       	3882639.000       
I-AV-705        	5371637.380       	3882850.000       
O-AV-706        	5372211.250       	3885757.000       
O-AV-707        	5372965.700       	3885730.000       
I-AV-709        	5373400.930       	3885061.000       
I-AV-710        	5373370.970       	3884567.000       
I-AV-711        	5375254.310       	3892453.000       
O-AV-713        	5373223.350       	3885771.000       
I-AV-714        	5373489.440       	3885859.000       
I-AV-716        	5375049.890       	3892390.000       
O-AV-717        	5375230.100       	3892217.000       
I-AV-718        	5375781.080       	3892912.000       
I-AV-720        	5374802.420       	3892099.000       
I-AV-721        	5383658.980       	3891387.000       
I-AV-722        	5375620.100       	3894534.000       
I-AV-73         	5369071.440       	3889922.000       
I-AV-730        	5372930.660       	3894062.000       
O-AV-731        	5371761.280       	3893488.000       
I-AV-733        	5371559.580       	3893019.000       
I-AV-735        	5372857.730       	3892092.000       
I-AV-736        	5373066.850       	3891986.000       
O-AV-737        	5372283.370       	3891945.000       
O-AV-738        	5372354.390       	3891536.000       
I-AV-739        	5372716.440       	3891299.000       
I-AV-74         	5368738.370       	3890078.000       
I-AV-740        	5373283.830       	3891918.000       
O-AV-78         	5368487.450       	3890255.000       
I-AV-8          	5373824.860       	3891344.000       
O-AV-80         	5368123.260       	3890018.000       
O-AV-82         	5367422.420       	3890586.000       
I-AV-84         	5367820.060       	3891478.000       
O-AV-85         	5368397.470       	3891672.000       
I-AV-86         	5367401.060       	3892025.000       
I-AV-89         	5366211.120       	3890931.000       
I-AV-91         	5366117.420       	3890698.000       
I-AV-93         	5366772.590       	3892559.000       
I-AV-94         	5366551.740       	3892642.000       
I-AV-99         	5367126.620       	3893573.000       
J-1             	5374446.720       	3885329.000       
J-10            	5373212.160       	3890373.000       
J-100           	5374235.360       	3892837.000       
J-1000          	5361148.090       	3897491.000       
J-1001          	5370631.390       	3892267.000       
J-1002          	5375051.460       	3902006.000       
J-1003          	5375786.150       	3889733.000       
J-1004          	5369722.840       	3885903.000       
J-1005          	5360912.530       	3891635.000       
J-1006          	5371439.660       	3888884.000       
J-1007          	5373118.910       	3884289.000       
J-1008          	5374793.840       	3888304.000       
J-1009          	5363583.720       	3897294.000       
J-101           	5371017.220       	3892234.000       
J-1010          	5381119.750       	3892451.000       
J-1011          	5373633.230       	3886771.000       
J-1012          	5364075.010       	3891493.000       
J-1013          	5364167.040       	3891880.000       
J-1014          	5376868.000       	3892776.000       
J-1015          	5376753.100       	3893037.000       
J-1016          	5382152.560       	3891819.000       
J-1017          	5365079.540       	3906606.000       
J-1018          	5372177.850       	3885497.000       
J-1019          	5372242.920       	3885856.000       
J-102           	5371217.220       	3892543.000       
J-1020          	5366331.840       	3891052.000       
J-1021          	5372143.650       	3885932.000       
J-1022          	5369475.360       	3890897.000       
J-1023          	5369633.790       	3890799.000       
J-1024          	5364650.840       	3892522.000       
J-1025          	5364873.480       	3892433.000       
J-1026          	5366761.660       	3891478.000       
J-1027          	5378976.570       	3885133.000       
J-1028          	5378578.850       	3885293.000       
J-1029          	5365423.870       	3881488.000       
J-103           	5369151.770       	3889725.000       
J-1030          	5365499.720       	3881365.000       
J-1031          	5366426.760       	3892054.000       
J-1032          	5364345.280       	3892076.000       
J-1033          	5370008.040       	3888780.000       
J-1034          	5378497.740       	3886662.000       
J-1035          	5367254.580       	3890633.000       
J-1036          	5368764.980       	3885955.000       
J-1037          	5364518.270       	3881921.000       
J-1038          	5374311.860       	3887049.000       
J-1039          	5369174.030       	3885548.000       
J-104           	5366915.220       	3888993.000       
J-1040          	5368756.320       	3884572.000       
J-1041          	5375876.510       	3892486.000       
J-1042          	5364775.560       	3882061.000       
J-1043          	5375618.920       	3892006.000       
J-1044          	5368803.550       	3886293.000       
J-1045          	5365401.430       	3894732.000       
J-1046          	5362718.620       	3886117.000       
J-1047          	5372249.770       	3891220.000       
J-1048          	5372389.780       	3887166.000       
J-1049          	5365427.230       	3890264.000       
J-105           	5366942.440       	3888729.000       
J-1050          	5360703.930       	3880283.000       
J-1051          	5369092.870       	3889119.000       
J-1052          	5371668.370       	3885812.000       
J-1053          	5369475.890       	3889548.000       
J-1054          	5361463.840       	3880423.000       
J-1055          	5364679.470       	3879955.000       
J-1056          	5365509.140       	3890915.000       
J-1057          	5365199.240       	3890232.000       
J-1058          	5375747.460       	3887895.000       
J-1059          	5375474.870       	3887942.000       
J-106           	5375027.940       	3890428.000       
J-1060          	5370831.530       	3885456.000       
J-1061          	5378529.000       	3886370.000       
J-1062          	5365063.380       	3888652.000       
J-1063          	5365744.380       	3888409.000       
J-1064          	5378478.740       	3889736.000       
J-1065          	5369889.450       	3890685.000       
J-1066          	5375386.960       	3901714.000       
J-1067          	5374873.740       	3901424.000       
J-1068          	5375005.680       	3899862.000       
J-1069          	5377494.810       	3887958.000       
J-107           	5367705.640       	3888146.000       
J-1070          	5377326.140       	3888051.000       
J-1071          	5360831.530       	3896899.000       
J-1072          	5360400.250       	3896012.000       
J-1073          	5376467.010       	3891344.000       
J-1074          	5378358.230       	3888126.000       
J-1075          	5378253.060       	3885848.000       
J-1076          	5378229.390       	3886139.000       
J-1077          	5376148.550       	3895216.000       
J-1078          	5380569.660       	3896393.000       
J-1079          	5370074.050       	3888740.000       
J-108           	5367703.340       	3888407.000       
J-1080          	5375929.720       	3902524.000       
J-1081          	5362063.850       	3896852.000       
J-1082          	5362105.490       	3897124.000       
J-1083          	5365750.360       	3881645.000       
J-1084          	5373834.940       	3888673.000       
J-1085          	5377532.160       	3888619.000       
J-1086          	5363999.300       	3882136.000       
J-1087          	5378780.780       	3885709.000       
J-1088          	5367751.100       	3887804.000       
J-1089          	5378859.430       	3886050.000       
J-109           	5366955.670       	3888646.000       
J-1090          	5376215.950       	3896024.000       
J-1091          	5361310.170       	3884649.000       
J-1092          	5375754.250       	3901034.000       
J-1093          	5361836.130       	3889763.000       
J-1094          	5373972.600       	3889756.000       
J-1095          	5378627.540       	3886092.000       
J-1096          	5363726.430       	3887120.000       
J-1097          	5363628.860       	3890113.000       
J-1098          	5365757.230       	3887084.000       
J-1099          	5366156.380       	3893751.000       
J-11            	5370753.600       	3886872.000       
J-110           	5371751.490       	3892692.000       
J-1100          	5369696.470       	3886642.000       
J-1101          	5363800.160       	3892299.000       
J-1102          	5372270.440       	3885281.000       
J-1103          	5377133.550       	3888123.000       
J-1104          	5366857.270       	3893457.000       
J-1105          	5365308.290       	3886506.000       
J-1106          	5376143.370       	3902733.000       
J-1107          	5379153.750       	3885060.000       
J-1108          	5371058.880       	3888549.000       
J-1109          	5380857.510       	3890316.000       
J-111           	5371820.070       	3892830.000       
J-1110          	5360583.040       	3880572.000       
J-1111          	5368865.740       	3883651.000       
J-1112          	5370028.290       	3892294.000       
J-1113          	5380579.830       	3891354.000       
J-1114          	5380585.030       	3891031.000       
J-1115          	5366092.250       	3893447.000       
J-1116          	5384385.910       	3891601.000       
J-1117          	5383990.440       	3891435.000       
J-1118          	5378314.970       	3885527.000       
J-1119          	5369940.380       	3888469.000       
J-112           	5369578.520       	3882123.000       
J-1120          	5374037.100       	3886631.000       
J-1121          	5370674.890       	3892034.000       
J-1122          	5364774.160       	3883064.000       
J-1123          	5364875.990       	3883441.000       
J-1124          	5365319.430       	3884448.000       
J-1125          	5373766.250       	3888707.000       
J-1126          	5361753.240       	3887588.000       
J-1127          	5361464.260       	3888005.000       
J-1128          	5372072.230       	3890799.000       
J-1129          	5362431.680       	3887343.000       
J-113           	5369954.600       	3882936.000       
J-1130          	5362423.910       	3887204.000       
J-1131          	5376205.490       	3900745.000       
J-1132          	5362760.730       	3891924.000       
J-1133          	5383406.620       	3892075.000       
J-1134          	5361977.530       	3887421.000       
J-1135          	5362313.270       	3887360.000       
J-1136          	5375538.510       	3885277.000       
J-1137          	5359645.950       	3896251.000       
J-1138          	5377359.490       	3888768.000       
J-1139          	5375219.130       	3889631.000       
J-114           	5373246.520       	3892516.000       
J-1140          	5362393.510       	3883044.000       
J-1141          	5374525.850       	3892206.000       
J-1142          	5375277.200       	3889569.000       
J-1143          	5376206.990       	3891303.000       
J-1144          	5375288.860       	3889606.000       
J-1145          	5373113.830       	3888939.000       
J-1146          	5364617.970       	3892199.000       
J-1147          	5364938.750       	3892128.000       
J-1148          	5369747.180       	3888279.000       
J-1149          	5362151.920       	3897239.000       
J-115           	5364930.410       	3882123.000       
J-1150          	5361478.860       	3897180.000       
J-1151          	5365402.280       	3892292.000       
J-1152          	5363541.400       	3880044.000       
J-1153          	5380621.310       	3892313.000       
J-1154          	5373778.900       	3885593.000       
J-1155          	5364600.430       	3893338.000       
J-1156          	5377470.230       	3892751.000       
J-1157          	5382852.310       	3891027.000       
J-1158          	5365163.450       	3889084.000       
J-1159          	5382994.130       	3890596.000       
J-116           	5374299.060       	3888526.000       
J-1160          	5379569.400       	3892515.000       
J-1161          	5361492.620       	3885612.000       
J-1162          	5361340.030       	3885629.000       
J-1163          	5376114.220       	3888573.000       
J-1164          	5383164.610       	3890597.000       
J-1165          	5363455.940       	3886656.000       
J-1166          	5362853.380       	3886899.000       
J-1167          	5384964.080       	3889008.000       
J-1168          	5378114.380       	3887473.000       
J-1169          	5378085.120       	3887207.000       
J-117           	5373175.290       	3885674.000       
J-1170          	5378846.240       	3884843.000       
J-1171          	5379066.480       	3884542.000       
J-1172          	5363381.470       	3894629.000       
J-1173          	5361744.600       	3887547.000       
J-1174          	5364934.150       	3888175.000       
J-1175          	5365111.600       	3888100.000       
J-1176          	5363469.430       	3886692.000       
J-1177          	5361963.160       	3888627.000       
J-1178          	5377796.840       	3887116.000       
J-1179          	5374444.730       	3892617.000       
J-118           	5370903.080       	3882916.000       
J-1180          	5369553.130       	3890290.000       
J-1181          	5365170.570       	3888076.000       
J-1182          	5368780.890       	3889961.000       
J-1183          	5362084.290       	3886169.000       
J-1184          	5384372.740       	3891420.000       
J-1185          	5364743.590       	3889641.000       
J-1186          	5372296.420       	3895223.000       
J-1187          	5376054.190       	3895457.000       
J-1188          	5376449.160       	3901666.000       
J-1189          	5365290.650       	3891720.000       
J-119           	5370436.550       	3882786.000       
J-1190          	5365400.000       	3891836.000       
J-1191          	5366543.210       	3895164.000       
J-1192          	5367842.570       	3894645.000       
J-1193          	5365050.220       	3892046.000       
J-1194          	5363568.530       	3889819.000       
J-1195          	5367526.190       	3884849.000       
J-1196          	5368761.860       	3890804.000       
J-1197          	5361794.280       	3887782.000       
J-1198          	5365297.410       	3892085.000       
J-1199          	5365811.360       	3881957.000       
J-12            	5371347.610       	3886668.000       
J-120           	5368910.770       	3887929.000       
J-1200          	5369062.650       	3890612.000       
J-1201          	5370110.290       	3891730.000       
J-1202          	5375769.890       	3888728.000       
J-1203          	5365396.260       	3885275.000       
J-1204          	5365671.020       	3892433.000       
J-1205          	5365867.620       	3888753.000       
J-1206          	5380886.590       	3891355.000       
J-1207          	5377740.680       	3887574.000       
J-1208          	5374337.210       	3893087.000       
J-1209          	5381491.890       	3890279.000       
J-121           	5373883.370       	3889085.000       
J-1210          	5364368.170       	3896356.000       
J-1211          	5365147.620       	3896200.000       
J-1212          	5381524.050       	3890695.000       
J-1213          	5378438.790       	3884861.000       
J-1214          	5361836.630       	3888651.000       
J-1215          	5363071.180       	3886846.000       
J-1216          	5361459.370       	3885273.000       
J-1217          	5363637.840       	3897391.000       
J-1218          	5368995.900       	3891204.000       
J-1219          	5377557.250       	3887942.000       
J-122           	5373502.940       	3884061.000       
J-1220          	5372360.350       	3894965.000       
J-1221          	5385051.570       	3889997.000       
J-1222          	5383392.630       	3890929.000       
J-1223          	5365560.580       	3885126.000       
J-1224          	5363687.700       	3886660.000       
J-1225          	5380241.670       	3892629.000       
J-1226          	5379952.580       	3892458.000       
J-1227          	5365867.390       	3884884.000       
J-1228          	5381051.390       	3890300.000       
J-1229          	5385869.100       	3888658.000       
J-123           	5373250.310       	3884304.000       
J-1230          	5387409.000       	3888567.000       
J-1231          	5363388.910       	3886779.000       
J-1232          	5381166.230       	3890670.000       
J-1233          	5383324.440       	3891462.000       
J-1234          	5383326.050       	3891306.000       
J-1235          	5362041.820       	3883638.000       
J-1236          	5381469.760       	3890156.000       
J-1237          	5365938.560       	3884884.000       
J-1238          	5379719.300       	3891899.000       
J-1239          	5364006.350       	3886581.000       
J-124           	5373073.420       	3885031.000       
J-1240          	5365394.400       	3885321.000       
J-1241          	5376103.840       	3888516.000       
J-1242          	5376354.850       	3889165.000       
J-1243          	5375798.600       	3889388.000       
J-1244          	5377645.510       	3888398.000       
J-1245          	5378533.990       	3889006.000       
J-1246          	5363963.140       	3886480.000       
J-1247          	5363353.460       	3886356.000       
J-1248          	5369129.220       	3882346.000       
J-1249          	5365110.560       	3882691.000       
J-125           	5373205.390       	3885009.000       
J-1250          	5368917.330       	3882003.000       
J-1251          	5363504.950       	3883688.000       
J-1252          	5363653.720       	3883750.000       
J-1253          	5366226.680       	3888784.000       
J-1254          	5361369.600       	3883425.000       
J-1255          	5375280.970       	3891092.000       
J-1256          	5375165.430       	3890790.000       
J-1257          	5375438.720       	3891504.000       
J-1258          	5366863.560       	3887430.000       
J-1259          	5369376.700       	3890416.000       
J-126           	5369334.550       	3882823.000       
J-1260          	5360794.560       	3891080.000       
J-1261          	5371946.370       	3889455.000       
J-1262          	5366069.310       	3884425.000       
J-1263          	5366745.950       	3883579.000       
J-1264          	5363632.170       	3883505.000       
J-1265          	5373803.570       	3888795.000       
J-1266          	5371745.720       	3889946.000       
J-1267          	5363400.460       	3879813.000       
J-1268          	5363603.260       	3879873.000       
J-1269          	5364884.650       	3880226.000       
J-127           	5369057.010       	3882808.000       
J-1270          	5365692.860       	3880181.000       
J-1271          	5375430.380       	3888821.000       
J-1272          	5366194.370       	3883971.000       
J-1273          	5375770.740       	3888670.000       
J-1274          	5369529.350       	3888083.000       
J-1275          	5368069.700       	3887426.000       
J-1276          	5366201.530       	3892962.000       
J-1277          	5381368.710       	3890490.000       
J-1278          	5380676.230       	3890326.000       
J-1279          	5375887.420       	3902099.000       
J-128           	5369003.520       	3882954.000       
J-1280          	5375955.860       	3901800.000       
J-1281          	5385196.710       	3892059.000       
J-1282          	5365485.170       	3882987.000       
J-1283          	5376268.450       	3902278.000       
J-1284          	5369376.070       	3890946.000       
J-1285          	5369131.460       	3890555.000       
J-1286          	5383739.330       	3891161.000       
J-1287          	5365595.990       	3882609.000       
J-1288          	5365279.080       	3879857.000       
J-1289          	5367880.490       	3889282.000       
J-129           	5375248.770       	3887065.000       
J-1290          	5367241.870       	3889280.000       
J-1291          	5362901.810       	3878598.000       
J-1292          	5367245.970       	3889554.000       
J-1293          	5370066.780       	3888495.000       
J-1294          	5363617.320       	3895505.000       
J-1295          	5368009.570       	3887799.000       
J-1296          	5366762.900       	3888089.000       
J-1297          	5374298.320       	3889971.000       
J-1298          	5375730.600       	3890655.000       
J-1299          	5376004.290       	3892218.000       
J-13            	5373028.040       	3895120.000       
J-130           	5368748.560       	3882800.000       
J-1300          	5375863.240       	3892195.000       
J-1301          	5374788.180       	3892903.000       
J-1302          	5373765.200       	3890649.000       
J-1303          	5376192.450       	3890515.000       
J-1304          	5377010.560       	3890502.000       
J-1305          	5376975.200       	3889441.000       
J-1306          	5376778.800       	3889467.000       
J-1307          	5377050.200       	3890108.000       
J-1308          	5376749.450       	3889025.000       
J-1309          	5377053.940       	3890013.000       
J-131           	5370026.190       	3882748.000       
J-1310          	5377628.780       	3887983.000       
J-1311          	5377773.570       	3887826.000       
J-1312          	5374741.710       	3887287.000       
J-1313          	5374825.210       	3886717.000       
J-1314          	5374016.490       	3889340.000       
J-1315          	5374531.040       	3889132.000       
J-1316          	5374440.560       	3887869.000       
J-1317          	5363667.160       	3894900.000       
J-1318          	5364122.700       	3895715.000       
J-1319          	5364090.730       	3895914.000       
J-132           	5380585.020       	3891030.000       
J-1320          	5359586.210       	3897047.000       
J-1321          	5359771.050       	3897016.000       
J-1322          	5359821.060       	3896648.000       
J-1323          	5357262.800       	3896960.000       
J-1324          	5374428.060       	3890447.000       
J-1325          	5364680.020       	3891685.000       
J-1326          	5374795.630       	3888718.000       
J-1327          	5376250.480       	3888870.000       
J-1328          	5375918.530       	3889018.000       
J-1329          	5375385.080       	3889274.000       
J-133           	5374033.130       	3888538.000       
J-1330          	5375114.410       	3889162.000       
J-1331          	5375051.590       	3889262.000       
J-1332          	5374197.100       	3889625.000       
J-1333          	5374117.770       	3889670.000       
J-1334          	5376865.580       	3889885.000       
J-1335          	5376584.210       	3890656.000       
J-1336          	5375415.210       	3894752.000       
J-1337          	5385697.850       	3889395.000       
J-1338          	5379408.850       	3887549.000       
J-1339          	5376265.190       	3891985.000       
J-134           	5362216.000       	3880540.000       
J-1340          	5376061.350       	3891886.000       
J-1341          	5373237.020       	3887952.000       
J-1342          	5374591.470       	3888242.000       
J-1343          	5373062.770       	3886942.000       
J-1344          	5372780.380       	3886103.000       
J-1345          	5372179.360       	3886516.000       
J-1346          	5372405.060       	3885391.000       
J-1347          	5372549.090       	3885382.000       
J-1348          	5371933.500       	3885629.000       
J-1349          	5364509.740       	3881377.000       
J-135           	5361948.020       	3880584.000       
J-1350          	5364910.040       	3881557.000       
J-1351          	5367851.820       	3881364.000       
J-1352          	5368452.410       	3882358.000       
J-1353          	5361821.040       	3881725.000       
J-1354          	5372399.460       	3887700.000       
J-1355          	5377349.380       	3889310.000       
J-1356          	5374071.990       	3889515.000       
J-1357          	5374137.900       	3889445.000       
J-1358          	5375001.680       	3889110.000       
J-1359          	5375322.810       	3889080.000       
J-136           	5373864.950       	3891534.000       
J-1360          	5374750.090       	3888530.000       
J-1361          	5375829.780       	3888811.000       
J-1362          	5376179.610       	3888656.000       
J-1363          	5377607.960       	3888232.000       
J-1364          	5379220.910       	3887512.000       
J-1365          	5372191.490       	3888945.000       
J-1366          	5368653.500       	3888751.000       
J-1367          	5368509.960       	3888807.000       
J-1368          	5373309.200       	3888012.000       
J-1369          	5375167.490       	3886115.000       
J-137           	5373649.710       	3891615.000       
J-1370          	5372415.570       	3885228.000       
J-1371          	5376202.250       	3886755.000       
J-1372          	5364380.780       	3874811.000       
J-1373          	5364644.630       	3891570.000       
J-1374          	5364717.980       	3891824.000       
J-1375          	5370112.950       	3890105.000       
J-1376          	5369951.860       	3889709.000       
J-1377          	5369692.010       	3890184.000       
J-1378          	5370379.160       	3890171.000       
J-1379          	5369495.650       	3891839.000       
J-138           	5369566.110       	3883036.000       
J-1380          	5372202.160       	3890989.000       
J-1381          	5374742.900       	3890551.000       
J-1382          	5374693.420       	3889826.000       
J-1383          	5373010.920       	3890884.000       
J-1384          	5375855.360       	3892289.000       
J-1385          	5375293.200       	3889817.000       
J-1386          	5362754.770       	3878522.000       
J-1387          	5361809.810       	3880852.000       
J-1388          	5362677.880       	3880044.000       
J-1389          	5362473.310       	3879568.000       
J-139           	5369489.770       	3882905.000       
J-1390          	5365007.240       	3880181.000       
J-1391          	5364568.380       	3879537.000       
J-1392          	5362433.950       	3881250.000       
J-1393          	5364387.630       	3882408.000       
J-1394          	5365108.490       	3883094.000       
J-1395          	5369319.540       	3882276.000       
J-1396          	5368554.680       	3884360.000       
J-1397          	5364035.900       	3882906.000       
J-1398          	5364660.910       	3881992.000       
J-1399          	5364787.840       	3892508.000       
J-14            	5371571.950       	3896726.000       
J-140           	5372957.300       	3890980.000       
J-1400          	5371306.770       	3893702.000       
J-1401          	5371293.090       	3892063.000       
J-1402          	5372382.340       	3891208.000       
J-1403          	5373456.400       	3891812.000       
J-1404          	5369570.060       	3889168.000       
J-1405          	5366302.730       	3889996.000       
J-1406          	5374744.430       	3887778.000       
J-1407          	5374667.580       	3887364.000       
J-1408          	5375151.580       	3887124.000       
J-1409          	5375730.830       	3887312.000       
J-141           	5366888.070       	3880057.000       
J-1410          	5379005.850       	3886281.000       
J-1411          	5380921.470       	3890797.000       
J-1412          	5381285.130       	3890291.000       
J-1413          	5381203.710       	3890484.000       
J-1414          	5383072.460       	3891862.000       
J-1415          	5378339.110       	3889193.000       
J-1416          	5367618.090       	3892858.000       
J-1417          	5367634.750       	3893627.000       
J-1418          	5367370.360       	3890771.000       
J-1419          	5370133.110       	3892511.000       
J-142           	5365037.770       	3883077.000       
J-1420          	5375161.770       	3886319.000       
J-1421          	5375900.270       	3889318.000       
J-1422          	5377829.800       	3889171.000       
J-1423          	5376868.950       	3888402.000       
J-1424          	5377304.510       	3888657.000       
J-1425          	5377694.710       	3888528.000       
J-1426          	5372281.010       	3889095.000       
J-1427          	5373748.050       	3888459.000       
J-1428          	5373691.640       	3888617.000       
J-1429          	5366327.350       	3886484.000       
J-143           	5373554.590       	3890728.000       
J-1430          	5368565.020       	3886588.000       
J-1431          	5369443.360       	3885513.000       
J-1432          	5365782.390       	3889648.000       
J-1433          	5365848.610       	3890586.000       
J-1434          	5374228.940       	3886524.000       
J-1435          	5374817.430       	3887834.000       
J-1436          	5374191.660       	3888511.000       
J-1437          	5374306.420       	3889130.000       
J-1438          	5364163.380       	3881848.000       
J-1439          	5363825.630       	3882393.000       
J-144           	5374656.030       	3892564.000       
J-1440          	5364106.590       	3882720.000       
J-1441          	5374405.590       	3887341.000       
J-1442          	5374069.050       	3887961.000       
J-1443          	5371465.240       	3886744.000       
J-1444          	5370966.660       	3892636.000       
J-1445          	5385239.260       	3891566.000       
J-1446          	5382431.580       	3891479.000       
J-1447          	5377201.850       	3892678.000       
J-1448          	5369942.520       	3891937.000       
J-1449          	5373922.630       	3885604.000       
J-145           	5364539.230       	3897040.000       
J-1450          	5369230.710       	3881991.000       
J-1451          	5366061.200       	3881484.000       
J-1452          	5378372.810       	3886428.000       
J-1453          	5359647.830       	3871447.000       
J-1454          	5359350.860       	3872179.000       
J-1455          	5358478.920       	3869919.000       
J-146           	5374371.200       	3899313.000       
J-147           	5368882.860       	3878201.000       
J-148           	5371036.670       	3892169.000       
J-149           	5368579.820       	3888983.000       
J-15            	5373163.390       	3883880.000       
J-150           	5376559.250       	3890500.000       
J-151           	5373906.490       	3891078.000       
J-152           	5371437.320       	3887053.000       
J-153           	5371590.880       	3886840.000       
J-154           	5376011.130       	3886741.000       
J-155           	5376236.710       	3887164.000       
J-156           	5373137.450       	3884854.000       
J-157           	5372892.580       	3884854.000       
J-158           	5372581.360       	3885758.000       
J-159           	5369057.600       	3885839.000       
J-16            	5373141.560       	3883752.000       
J-160           	5369291.410       	3887038.000       
J-161           	5377750.740       	3889247.000       
J-162           	5374216.950       	3888929.000       
J-163           	5373085.350       	3892751.000       
J-164           	5368642.780       	3892207.000       
J-165           	5379865.370       	3887748.000       
J-166           	5370649.180       	3882649.000       
J-167           	5367768.030       	3890317.000       
J-168           	5368660.920       	3890009.000       
J-169           	5370484.510       	3885629.000       
J-17            	5373096.510       	3883894.000       
J-170           	5373135.040       	3883634.000       
J-171           	5364118.860       	3883749.000       
J-172           	5369294.330       	3885494.000       
J-173           	5369462.020       	3885681.000       
J-174           	5377053.150       	3888153.000       
J-175           	5376781.150       	3887488.000       
J-176           	5366977.530       	3888413.000       
J-177           	5371574.550       	3892266.000       
J-178           	5372247.230       	3887021.000       
J-179           	5373247.590       	3885865.000       
J-18            	5371092.320       	3893675.000       
J-180           	5371084.790       	3892846.000       
J-181           	5371070.480       	3893324.000       
J-182           	5372805.570       	3884851.000       
J-183           	5368294.200       	3886601.000       
J-184           	5368762.280       	3886591.000       
J-185           	5369201.840       	3888265.000       
J-186           	5372427.020       	3886318.000       
J-187           	5364195.510       	3883157.000       
J-188           	5373375.830       	3886182.000       
J-189           	5365631.540       	3884116.000       
J-19            	5371140.950       	3893432.000       
J-190           	5369068.160       	3884786.000       
J-191           	5369350.980       	3884743.000       
J-192           	5374210.770       	3889056.000       
J-193           	5372787.070       	3888567.000       
J-194           	5372819.830       	3888910.000       
J-195           	5369019.070       	3889841.000       
J-196           	5370939.270       	3892142.000       
J-197           	5373194.490       	3883986.000       
J-198           	5372425.040       	3885057.000       
J-199           	5367078.090       	3887405.000       
J-2             	5373742.890       	3885747.000       
J-20            	5373828.470       	3892750.000       
J-200           	5366141.800       	3890837.000       
J-201           	5379313.900       	3891036.000       
J-202           	5384506.020       	3890936.000       
J-203           	5373494.900       	3891223.000       
J-204           	5362706.560       	3879877.000       
J-205           	5362506.410       	3879993.000       
J-206           	5373271.600       	3891312.000       
J-207           	5364697.420       	3883319.000       
J-208           	5376415.790       	3886998.000       
J-209           	5375800.120       	3887247.000       
J-21            	5371891.220       	3893682.000       
J-210           	5374235.730       	3890941.000       
J-211           	5373117.550       	3884210.000       
J-212           	5369098.350       	3883244.000       
J-213           	5370313.870       	3882557.000       
J-214           	5366981.840       	3888145.000       
J-215           	5371134.440       	3885800.000       
J-216           	5369568.380       	3882557.000       
J-217           	5372477.340       	3890391.000       
J-218           	5372486.480       	3890644.000       
J-219           	5369928.700       	3882738.000       
J-22            	5368965.740       	3892184.000       
J-220           	5375553.410       	3891804.000       
J-221           	5375994.240       	3891638.000       
J-222           	5363169.380       	3885571.000       
J-223           	5363026.470       	3883966.000       
J-224           	5374740.240       	3886775.000       
J-225           	5374440.010       	3887491.000       
J-226           	5363996.510       	3889524.000       
J-227           	5364007.890       	3889823.000       
J-228           	5363644.250       	3889213.000       
J-229           	5365588.920       	3880132.000       
J-23            	5368720.110       	3892364.000       
J-230           	5363274.460       	3888986.000       
J-231           	5363029.220       	3888827.000       
J-232           	5361687.060       	3890167.000       
J-233           	5361394.500       	3890291.000       
J-234           	5374937.120       	3887692.000       
J-235           	5375151.810       	3888163.000       
J-236           	5373547.940       	3888019.000       
J-237           	5374023.440       	3887873.000       
J-238           	5365843.560       	3886319.000       
J-239           	5366091.080       	3886392.000       
J-24            	5362254.270       	3879752.000       
J-240           	5372013.680       	3887729.000       
J-241           	5372180.420       	3887516.000       
J-242           	5363048.580       	3877764.000       
J-243           	5365035.720       	3880772.000       
J-244           	5363837.570       	3881416.000       
J-245           	5364737.230       	3898080.000       
J-246           	5364518.750       	3897202.000       
J-247           	5366752.820       	3891639.000       
J-248           	5367113.970       	3891451.000       
J-249           	5365333.320       	3886095.000       
J-25            	5362809.000       	3879501.000       
J-250           	5363506.230       	3878464.000       
J-251           	5373293.610       	3889302.000       
J-252           	5363487.370       	3877950.000       
J-253           	5373650.540       	3888299.000       
J-254           	5365686.340       	3879849.000       
J-255           	5360644.040       	3895934.000       
J-256           	5362879.750       	3896517.000       
J-257           	5361565.720       	3897068.000       
J-258           	5373018.460       	3888505.000       
J-259           	5373676.020       	3888218.000       
J-26            	5374829.500       	3890554.000       
J-260           	5366849.970       	3897199.000       
J-261           	5367950.100       	3896654.000       
J-262           	5363538.250       	3889156.000       
J-263           	5364543.320       	3887964.000       
J-264           	5361630.050       	3890041.000       
J-265           	5361604.700       	3889981.000       
J-266           	5372373.010       	3889259.000       
J-267           	5372511.950       	3889201.000       
J-268           	5378349.330       	3890878.000       
J-269           	5362935.350       	3890823.000       
J-27            	5374580.230       	3890408.000       
J-270           	5363369.400       	3891250.000       
J-271           	5365460.050       	3888017.000       
J-272           	5365620.700       	3887964.000       
J-273           	5361888.030       	3879261.000       
J-274           	5361828.680       	3879400.000       
J-275           	5365301.860       	3891604.000       
J-276           	5365538.450       	3891508.000       
J-277           	5370559.040       	3887874.000       
J-278           	5370514.810       	3888296.000       
J-279           	5374283.370       	3888480.000       
J-28            	5373088.460       	3883753.000       
J-280           	5367514.010       	3893873.000       
J-281           	5367522.200       	3893775.000       
J-282           	5367821.310       	3893938.000       
J-283           	5368262.340       	3893805.000       
J-284           	5372218.520       	3887450.000       
J-285           	5372289.760       	3887518.000       
J-286           	5374105.520       	3888048.000       
J-287           	5374637.550       	3887808.000       
J-288           	5363794.910       	3889606.000       
J-289           	5366911.300       	3892940.000       
J-29            	5373054.910       	3883162.000       
J-290           	5366778.570       	3892650.000       
J-291           	5363395.630       	3878124.000       
J-292           	5363303.920       	3878353.000       
J-293           	5362001.840       	3880090.000       
J-294           	5365800.240       	3893409.000       
J-295           	5366443.620       	3892885.000       
J-296           	5375973.540       	3894355.000       
J-297           	5374050.420       	3895550.000       
J-298           	5362347.050       	3878134.000       
J-299           	5362492.940       	3877782.000       
J-3             	5372871.780       	3891368.000       
J-30            	5378453.950       	3889435.000       
J-300           	5362504.990       	3891011.000       
J-301           	5362214.030       	3889996.000       
J-302           	5362750.180       	3878208.000       
J-303           	5362828.680       	3878079.000       
J-304           	5361951.920       	3890052.000       
J-305           	5364079.890       	3886999.000       
J-306           	5372150.670       	3888845.000       
J-307           	5372579.830       	3888610.000       
J-308           	5376207.230       	3886191.000       
J-309           	5368078.560       	3891767.000       
J-31            	5378307.870       	3889060.000       
J-310           	5368246.560       	3892084.000       
J-311           	5370350.500       	3887976.000       
J-312           	5370715.770       	3893700.000       
J-313           	5370218.710       	3892635.000       
J-314           	5364739.940       	3879537.000       
J-315           	5364031.980       	3879762.000       
J-316           	5376403.970       	3891540.000       
J-317           	5376753.070       	3892212.000       
J-318           	5367036.060       	3893360.000       
J-319           	5375958.580       	3891378.000       
J-32            	5374403.420       	3888806.000       
J-320           	5375690.170       	3892152.000       
J-321           	5365348.390       	3891681.000       
J-322           	5372498.120       	3888157.000       
J-323           	5373338.980       	3889601.000       
J-324           	5376563.820       	3888453.000       
J-325           	5376522.570       	3888357.000       
J-326           	5377946.020       	3889142.000       
J-327           	5361049.970       	3880858.000       
J-328           	5361130.710       	3880617.000       
J-329           	5370202.580       	3892121.000       
J-33            	5374468.830       	3888974.000       
J-330           	5370053.110       	3891848.000       
J-331           	5370099.600       	3890509.000       
J-332           	5370382.730       	3890324.000       
J-333           	5376952.420       	3892156.000       
J-334           	5376871.190       	3891514.000       
J-335           	5367405.890       	3890033.000       
J-336           	5377308.930       	3887247.000       
J-337           	5377454.750       	3887069.000       
J-338           	5374084.420       	3889312.000       
J-339           	5374283.820       	3889230.000       
J-34            	5379574.190       	3889090.000       
J-340           	5368361.350       	3891594.000       
J-341           	5370212.160       	3887060.000       
J-342           	5370538.530       	3887061.000       
J-343           	5373231.910       	3887339.000       
J-344           	5372962.360       	3887677.000       
J-345           	5363207.700       	3880887.000       
J-346           	5379505.390       	3892175.000       
J-347           	5379812.640       	3892384.000       
J-348           	5366404.280       	3890139.000       
J-349           	5366289.720       	3889847.000       
J-35            	5379621.000       	3889222.000       
J-350           	5379299.300       	3891221.000       
J-351           	5363520.890       	3889216.000       
J-352           	5371573.060       	3892266.000       
J-353           	5368927.040       	3884504.000       
J-354           	5361974.370       	3880819.000       
J-355           	5382126.790       	3886637.000       
J-356           	5363947.190       	3894788.000       
J-357           	5363905.950       	3894624.000       
J-358           	5376671.470       	3889044.000       
J-359           	5376741.170       	3889245.000       
J-36            	5368323.180       	3890165.000       
J-360           	5361606.060       	3879889.000       
J-361           	5361651.320       	3879779.000       
J-362           	5370258.130       	3888708.000       
J-363           	5370286.880       	3889003.000       
J-364           	5362734.390       	3890912.000       
J-365           	5375523.480       	3889618.000       
J-366           	5375717.290       	3889578.000       
J-367           	5365977.300       	3890026.000       
J-368           	5365988.180       	3889973.000       
J-369           	5363108.030       	3888997.000       
J-37            	5368024.750       	3888720.000       
J-370           	5363149.810       	3889765.000       
J-371           	5365302.780       	3890991.000       
J-372           	5376035.920       	3889291.000       
J-373           	5377042.400       	3889881.000       
J-374           	5377830.260       	3889802.000       
J-375           	5365391.550       	3888043.000       
J-376           	5364735.160       	3887708.000       
J-377           	5376609.480       	3895372.000       
J-378           	5378240.310       	3896139.000       
J-379           	5376240.080       	3891565.000       
J-38            	5379679.790       	3888408.000       
J-380           	5375387.780       	3886986.000       
J-381           	5375586.840       	3887342.000       
J-382           	5373324.690       	3890793.000       
J-383           	5375474.780       	3889500.000       
J-384           	5369444.230       	3882600.000       
J-385           	5362266.050       	3881640.000       
J-386           	5362312.570       	3881166.000       
J-387           	5365135.120       	3886660.000       
J-388           	5364715.010       	3887203.000       
J-389           	5365710.720       	3887934.000       
J-39            	5379646.210       	3888447.000       
J-390           	5365242.650       	3891663.000       
J-391           	5374714.490       	3888339.000       
J-392           	5374966.560       	3888970.000       
J-393           	5368263.390       	3893806.000       
J-394           	5368125.670       	3893235.000       
J-395           	5362979.550       	3881681.000       
J-396           	5362857.900       	3881014.000       
J-397           	5364369.270       	3894525.000       
J-398           	5364455.950       	3895048.000       
J-399           	5375290.790       	3887461.000       
J-4             	5372943.600       	3891169.000       
J-40            	5367896.790       	3888991.000       
J-400           	5370378.940       	3889952.000       
J-401           	5370440.290       	3889728.000       
J-402           	5362055.690       	3878007.000       
J-403           	5361876.830       	3877934.000       
J-404           	5368634.900       	3884838.000       
J-405           	5368752.080       	3885326.000       
J-406           	5377823.330       	3888650.000       
J-407           	5377797.730       	3888592.000       
J-408           	5362845.490       	3890865.000       
J-409           	5361837.680       	3878569.000       
J-41            	5365444.050       	3883842.000       
J-410           	5361753.570       	3878514.000       
J-411           	5365003.270       	3887489.000       
J-412           	5362301.540       	3879083.000       
J-413           	5362359.910       	3878943.000       
J-414           	5373181.290       	3890494.000       
J-415           	5373068.380       	3890798.000       
J-416           	5375867.640       	3886780.000       
J-417           	5374352.620       	3886478.000       
J-418           	5375066.650       	3886133.000       
J-419           	5367309.940       	3884496.000       
J-42            	5364589.770       	3883466.000       
J-420           	5367640.360       	3884708.000       
J-421           	5376077.990       	3893130.000       
J-422           	5376046.720       	3893575.000       
J-423           	5360720.720       	3879962.000       
J-424           	5361637.310       	3878986.000       
J-425           	5366053.940       	3889828.000       
J-426           	5369992.780       	3892588.000       
J-427           	5370327.640       	3892351.000       
J-428           	5382257.280       	3892132.000       
J-429           	5382541.240       	3892113.000       
J-43            	5371599.260       	3886333.000       
J-430           	5370417.990       	3882688.000       
J-431           	5375515.070       	3886183.000       
J-432           	5375466.730       	3885974.000       
J-433           	5369375.270       	3888162.000       
J-434           	5376482.990       	3891512.000       
J-435           	5376659.390       	3891528.000       
J-436           	5374505.720       	3886850.000       
J-437           	5367237.640       	3894289.000       
J-438           	5367141.920       	3893921.000       
J-439           	5374390.600       	3889188.000       
J-44            	5371905.670       	3886112.000       
J-440           	5374781.140       	3889040.000       
J-441           	5367170.650       	3892402.000       
J-442           	5365948.280       	3892472.000       
J-443           	5366361.440       	3890432.000       
J-444           	5365974.470       	3890498.000       
J-445           	5362509.540       	3881106.000       
J-446           	5363246.950       	3896322.000       
J-447           	5363581.550       	3879022.000       
J-448           	5363133.950       	3878700.000       
J-449           	5364146.080       	3880120.000       
J-45            	5369846.410       	3893258.000       
J-450           	5363969.400       	3880119.000       
J-451           	5368006.720       	3891811.000       
J-452           	5365612.760       	3893269.000       
J-453           	5365175.210       	3893591.000       
J-454           	5366109.690       	3893023.000       
J-455           	5375922.570       	3893988.000       
J-456           	5376203.700       	3894084.000       
J-457           	5375961.270       	3892856.000       
J-458           	5375505.100       	3893099.000       
J-459           	5365040.940       	3892823.000       
J-46            	5369024.510       	3893034.000       
J-460           	5373083.260       	3885402.000       
J-461           	5376990.480       	3889352.000       
J-462           	5366647.250       	3892537.000       
J-463           	5366382.490       	3892799.000       
J-464           	5366291.340       	3890944.000       
J-465           	5366039.800       	3890594.000       
J-466           	5363842.900       	3879266.000       
J-467           	5363994.220       	3879324.000       
J-468           	5377016.180       	3888892.000       
J-469           	5377068.640       	3887349.000       
J-47            	5372725.460       	3884307.000       
J-470           	5376853.380       	3886836.000       
J-471           	5374468.520       	3899747.000       
J-472           	5374297.050       	3898740.000       
J-473           	5370515.740       	3889849.000       
J-474           	5364924.400       	3879213.000       
J-475           	5364595.980       	3878790.000       
J-476           	5376595.450       	3886930.000       
J-477           	5376718.420       	3887287.000       
J-478           	5376114.630       	3903355.000       
J-479           	5375873.480       	3903216.000       
J-48            	5372186.970       	3882809.000       
J-480           	5363441.200       	3884426.000       
J-481           	5363424.100       	3884052.000       
J-482           	5363454.670       	3882375.000       
J-483           	5363765.700       	3882468.000       
J-484           	5369934.500       	3889273.000       
J-485           	5365898.750       	3889587.000       
J-486           	5366115.740       	3889448.000       
J-487           	5361709.570       	3878963.000       
J-488           	5377714.960       	3889184.000       
J-489           	5377574.540       	3888691.000       
J-49            	5377756.380       	3889496.000       
J-490           	5363569.260       	3884479.000       
J-491           	5373240.400       	3889024.000       
J-492           	5373913.730       	3888779.000       
J-493           	5362140.710       	3881234.000       
J-494           	5371550.260       	3892846.000       
J-495           	5363776.890       	3886866.000       
J-496           	5364068.030       	3886749.000       
J-497           	5366913.540       	3889743.000       
J-498           	5366832.230       	3889533.000       
J-499           	5364407.530       	3878902.000       
J-5             	5369621.540       	3891765.000       
J-50            	5379558.040       	3888029.000       
J-500           	5364240.210       	3879061.000       
J-501           	5375331.880       	3892691.000       
J-502           	5375209.810       	3892353.000       
J-503           	5367730.350       	3892658.000       
J-504           	5362262.450       	3891114.000       
J-505           	5361774.460       	3879483.000       
J-506           	5373433.470       	3899239.000       
J-507           	5372566.710       	3899325.000       
J-508           	5362872.510       	3896644.000       
J-509           	5362965.610       	3896617.000       
J-51            	5374170.050       	3888945.000       
J-510           	5364868.940       	3886423.000       
J-511           	5363462.130       	3887932.000       
J-512           	5363252.620       	3887605.000       
J-513           	5373003.750       	3884188.000       
J-514           	5366932.640       	3887725.000       
J-515           	5360990.200       	3880794.000       
J-516           	5376915.030       	3890708.000       
J-517           	5376156.820       	3890593.000       
J-518           	5362294.310       	3880224.000       
J-519           	5362604.370       	3880166.000       
J-52            	5374154.120       	3888910.000       
J-520           	5374940.430       	3903124.000       
J-521           	5374911.190       	3901993.000       
J-522           	5363520.100       	3888097.000       
J-523           	5360687.580       	3881145.000       
J-524           	5370477.530       	3889441.000       
J-525           	5362839.280       	3885604.000       
J-526           	5362698.350       	3883996.000       
J-527           	5363764.060       	3891702.000       
J-528           	5363277.600       	3891773.000       
J-529           	5374892.590       	3893173.000       
J-53            	5373095.960       	3884041.000       
J-530           	5363470.750       	3889968.000       
J-531           	5367585.790       	3893396.000       
J-532           	5376157.170       	3888066.000       
J-533           	5376536.780       	3887618.000       
J-534           	5372796.440       	3886612.000       
J-535           	5373222.380       	3889323.000       
J-536           	5373598.460       	3890221.000       
J-537           	5373674.590       	3890225.000       
J-538           	5384417.320       	3892081.000       
J-539           	5384409.000       	3891953.000       
J-54            	5378556.250       	3888407.000       
J-540           	5374989.670       	3893397.000       
J-541           	5374927.980       	3893261.000       
J-542           	5377194.950       	3886965.000       
J-543           	5377376.340       	3886854.000       
J-544           	5375807.650       	3892505.000       
J-545           	5375776.220       	3893455.000       
J-546           	5363510.210       	3885244.000       
J-547           	5370429.880       	3889318.000       
J-548           	5371063.500       	3889173.000       
J-549           	5365163.980       	3880913.000       
J-55            	5368904.520       	3891259.000       
J-550           	5364869.000       	3881113.000       
J-551           	5374777.550       	3901001.000       
J-552           	5374695.150       	3900661.000       
J-553           	5378347.620       	3891777.000       
J-554           	5378325.720       	3891849.000       
J-555           	5377164.580       	3890292.000       
J-556           	5374053.270       	3890059.000       
J-557           	5374467.350       	3889926.000       
J-558           	5364024.910       	3894288.000       
J-559           	5364391.210       	3893117.000       
J-56            	5372508.890       	3885052.000       
J-560           	5361357.730       	3892396.000       
J-561           	5360974.900       	3892371.000       
J-562           	5370168.130       	3889961.000       
J-563           	5370590.950       	3888885.000       
J-564           	5362867.560       	3889003.000       
J-565           	5375677.040       	3893415.000       
J-566           	5368999.860       	3889792.000       
J-567           	5370080.730       	3887078.000       
J-568           	5369177.420       	3885117.000       
J-569           	5378685.100       	3891198.000       
J-57            	5372703.460       	3885044.000       
J-570           	5378889.350       	3891318.000       
J-571           	5361246.300       	3880331.000       
J-572           	5366065.580       	3879626.000       
J-573           	5365260.760       	3879383.000       
J-574           	5375389.800       	3893108.000       
J-575           	5378833.590       	3890874.000       
J-576           	5364698.370       	3893885.000       
J-577           	5362858.090       	3895229.000       
J-578           	5363478.040       	3894977.000       
J-579           	5364357.640       	3888428.000       
J-58            	5373123.080       	3884519.000       
J-580           	5364494.040       	3888556.000       
J-581           	5377027.830       	3894162.000       
J-582           	5374860.720       	3893078.000       
J-583           	5384621.210       	3890719.000       
J-584           	5373064.650       	3889060.000       
J-585           	5372650.290       	3891065.000       
J-586           	5358035.810       	3898587.000       
J-587           	5359312.150       	3896360.000       
J-588           	5370444.000       	3885017.000       
J-589           	5370028.570       	3885229.000       
J-59            	5372883.010       	3884534.000       
J-590           	5363873.270       	3887496.000       
J-591           	5361425.390       	3879337.000       
J-592           	5378276.780       	3896168.000       
J-593           	5361941.360       	3880376.000       
J-594           	5362951.410       	3897263.000       
J-595           	5371572.860       	3898407.000       
J-596           	5376540.420       	3892513.000       
J-597           	5370980.160       	3884993.000       
J-598           	5370674.780       	3885279.000       
J-599           	5363577.230       	3890587.000       
J-6             	5369067.070       	3892150.000       
J-60            	5371794.460       	3892775.000       
J-600           	5361755.490       	3891722.000       
J-601           	5371977.710       	3900156.000       
J-602           	5371833.870       	3898212.000       
J-603           	5365141.340       	3891330.000       
J-604           	5369652.460       	3889815.000       
J-605           	5370251.950       	3890101.000       
J-606           	5366424.110       	3897104.000       
J-607           	5366478.020       	3896982.000       
J-608           	5361367.710       	3890839.000       
J-609           	5361099.340       	3890954.000       
J-61            	5373507.860       	3891915.000       
J-610           	5379064.770       	3887510.000       
J-611           	5377505.250       	3890670.000       
J-612           	5377111.630       	3890544.000       
J-613           	5376883.190       	3889473.000       
J-614           	5362711.500       	3890292.000       
J-615           	5376835.770       	3889396.000       
J-616           	5375523.060       	3893019.000       
J-617           	5375534.070       	3903094.000       
J-618           	5368885.490       	3888869.000       
J-619           	5368215.240       	3892838.000       
J-62            	5373275.150       	3885138.000       
J-620           	5368075.950       	3892428.000       
J-621           	5364971.460       	3890031.000       
J-622           	5376738.930       	3888284.000       
J-623           	5377383.790       	3890712.000       
J-624           	5377821.080       	3890810.000       
J-625           	5375523.580       	3902493.000       
J-626           	5376176.390       	3892351.000       
J-627           	5375981.340       	3892284.000       
J-628           	5361581.470       	3897122.000       
J-629           	5376847.640       	3892645.000       
J-63            	5373188.360       	3885401.000       
J-630           	5376251.870       	3893046.000       
J-631           	5378162.770       	3888565.000       
J-632           	5374723.510       	3893338.000       
J-633           	5375124.630       	3902221.000       
J-634           	5375369.610       	3902078.000       
J-635           	5364444.940       	3888341.000       
J-636           	5364657.720       	3888428.000       
J-637           	5376314.910       	3888453.000       
J-638           	5369561.630       	3889680.000       
J-639           	5362933.160       	3897041.000       
J-64            	5364438.510       	3896879.000       
J-640           	5363541.610       	3896795.000       
J-641           	5371747.950       	3889573.000       
J-642           	5373058.370       	3888974.000       
J-643           	5374197.290       	3899368.000       
J-644           	5365078.930       	3891433.000       
J-645           	5365057.270       	3891540.000       
J-646           	5369840.060       	3888056.000       
J-647           	5374090.070       	3897632.000       
J-648           	5373417.440       	3889588.000       
J-649           	5361048.920       	3881273.000       
J-65            	5364390.590       	3896912.000       
J-650           	5380913.700       	3893046.000       
J-651           	5381070.460       	3892422.000       
J-652           	5372054.220       	3888445.000       
J-653           	5371590.060       	3888034.000       
J-654           	5366836.740       	3897075.000       
J-655           	5361387.440       	3880045.000       
J-656           	5380717.450       	3892648.000       
J-657           	5380671.680       	3892999.000       
J-658           	5364941.190       	3891885.000       
J-659           	5365212.310       	3891841.000       
J-66            	5379222.490       	3891164.000       
J-660           	5372755.440       	3889829.000       
J-661           	5372074.140       	3889383.000       
J-662           	5375026.740       	3888949.000       
J-663           	5379973.290       	3892049.000       
J-664           	5380068.990       	3891743.000       
J-665           	5365668.360       	3890599.000       
J-666           	5363879.810       	3881239.000       
J-667           	5363995.950       	3880975.000       
J-668           	5376426.020       	3888516.000       
J-669           	5369685.490       	3885422.000       
J-67            	5365051.210       	3883559.000       
J-670           	5361759.610       	3891134.000       
J-671           	5361478.480       	3883402.000       
J-672           	5362242.420       	3883135.000       
J-673           	5380197.350       	3892972.000       
J-674           	5380394.960       	3892942.000       
J-675           	5371871.570       	3893877.000       
J-676           	5371938.790       	3893911.000       
J-677           	5366530.530       	3881273.000       
J-678           	5366256.020       	3880943.000       
J-679           	5362856.890       	3896853.000       
J-68            	5371096.380       	3886315.000       
J-680           	5363434.250       	3896547.000       
J-681           	5369799.260       	3892024.000       
J-682           	5361655.190       	3880894.000       
J-683           	5361674.960       	3880719.000       
J-684           	5366317.490       	3884307.000       
J-685           	5366447.610       	3883802.000       
J-686           	5367442.110       	3892182.000       
J-687           	5367515.990       	3892123.000       
J-688           	5362331.550       	3883982.000       
J-689           	5361766.670       	3884044.000       
J-69            	5364504.110       	3896983.000       
J-690           	5367523.630       	3892311.000       
J-691           	5361520.670       	3884486.000       
J-692           	5365797.620       	3879863.000       
J-693           	5372900.460       	3888556.000       
J-694           	5369911.100       	3891630.000       
J-695           	5369701.640       	3891254.000       
J-696           	5377387.030       	3890714.000       
J-697           	5377155.220       	3890711.000       
J-698           	5359976.500       	3896948.000       
J-699           	5359829.380       	3897425.000       
J-7             	5372905.560       	3884192.000       
J-70            	5364453.210       	3897011.000       
J-700           	5372755.540       	3889829.000       
J-701           	5373668.790       	3889472.000       
J-702           	5368705.650       	3891374.000       
J-703           	5371700.080       	3887061.000       
J-704           	5374578.160       	3888051.000       
J-705           	5369065.160       	3883914.000       
J-706           	5365985.170       	3882249.000       
J-707           	5365907.890       	3882134.000       
J-708           	5361777.330       	3881156.000       
J-709           	5376874.480       	3886736.000       
J-71            	5373393.940       	3891714.000       
J-710           	5367950.620       	3896655.000       
J-711           	5369565.860       	3895917.000       
J-712           	5366126.270       	3888443.000       
J-713           	5370655.850       	3890145.000       
J-714           	5370541.820       	3890038.000       
J-715           	5377388.250       	3891551.000       
J-716           	5376791.170       	3890996.000       
J-717           	5364242.720       	3882413.000       
J-718           	5364536.860       	3882419.000       
J-719           	5365268.110       	3888035.000       
J-72            	5373200.310       	3891790.000       
J-720           	5375227.300       	3888348.000       
J-721           	5363868.020       	3894303.000       
J-722           	5366113.040       	3890064.000       
J-723           	5374337.620       	3889139.000       
J-724           	5374311.750       	3889219.000       
J-725           	5366978.990       	3891162.000       
J-726           	5374972.720       	3900904.000       
J-727           	5375391.550       	3900720.000       
J-728           	5366004.460       	3889095.000       
J-729           	5361818.730       	3891282.000       
J-73            	5373448.220       	3891705.000       
J-730           	5368118.050       	3886648.000       
J-731           	5376080.900       	3899471.000       
J-732           	5375812.170       	3899454.000       
J-733           	5372527.430       	3889275.000       
J-734           	5361318.240       	3879597.000       
J-735           	5370603.290       	3887395.000       
J-736           	5370798.760       	3887069.000       
J-737           	5362906.330       	3888803.000       
J-738           	5375233.940       	3888875.000       
J-739           	5385102.030       	3890645.000       
J-74            	5364402.420       	3896844.000       
J-740           	5362775.170       	3878809.000       
J-741           	5362515.930       	3878600.000       
J-742           	5361059.630       	3890267.000       
J-743           	5371458.790       	3882680.000       
J-744           	5371785.590       	3889052.000       
J-745           	5379355.740       	3892158.000       
J-746           	5379679.450       	3891479.000       
J-747           	5364803.590       	3891523.000       
J-748           	5364900.290       	3891784.000       
J-749           	5371811.680       	3894119.000       
J-75            	5372001.460       	3886771.000       
J-750           	5380940.560       	3890653.000       
J-751           	5380848.260       	3890667.000       
J-752           	5369495.530       	3888572.000       
J-753           	5375512.640       	3902093.000       
J-754           	5364845.510       	3891636.000       
J-755           	5365918.270       	3879901.000       
J-756           	5375617.440       	3893381.000       
J-757           	5365194.440       	3892572.000       
J-758           	5365305.780       	3892727.000       
J-759           	5373401.230       	3886489.000       
J-76            	5371951.570       	3886708.000       
J-760           	5373730.970       	3886191.000       
J-761           	5382527.030       	3891861.000       
J-762           	5366055.360       	3887799.000       
J-763           	5366749.790       	3887510.000       
J-764           	5375400.580       	3889987.000       
J-765           	5375250.710       	3889624.000       
J-766           	5362191.130       	3890923.000       
J-767           	5361764.440       	3890467.000       
J-768           	5369619.320       	3896102.000       
J-769           	5362639.330       	3877961.000       
J-77            	5369239.490       	3889067.000       
J-770           	5366113.550       	3893668.000       
J-771           	5362653.140       	3878404.000       
J-772           	5368416.200       	3884377.000       
J-773           	5368671.560       	3884284.000       
J-774           	5375171.000       	3902779.000       
J-775           	5366666.220       	3880357.000       
J-776           	5366463.260       	3880649.000       
J-777           	5363679.860       	3879657.000       
J-778           	5364262.850       	3881759.000       
J-779           	5362641.840       	3879144.000       
J-78            	5368734.080       	3890757.000       
J-780           	5377266.080       	3892522.000       
J-781           	5377121.790       	3892864.000       
J-782           	5365259.900       	3891827.000       
J-783           	5368033.260       	3896785.000       
J-784           	5373612.460       	3888249.000       
J-785           	5364807.790       	3886346.000       
J-786           	5382578.720       	3892529.000       
J-787           	5362166.800       	3888291.000       
J-788           	5362415.070       	3888236.000       
J-789           	5373810.940       	3889417.000       
J-79            	5368245.490       	3890090.000       
J-790           	5374546.010       	3890826.000       
J-791           	5372688.130       	3897865.000       
J-792           	5376121.100       	3890288.000       
J-793           	5363439.350       	3886993.000       
J-794           	5363474.450       	3886970.000       
J-795           	5374790.260       	3889788.000       
J-796           	5373496.200       	3888020.000       
J-797           	5362504.950       	3888469.000       
J-798           	5375057.580       	3890508.000       
J-799           	5370755.110       	3884162.000       
J-8             	5372894.400       	3884024.000       
J-80            	5367879.010       	3889739.000       
J-800           	5369928.420       	3884467.000       
J-801           	5369383.990       	3883663.000       
J-802           	5364874.660       	3888200.000       
J-803           	5365806.200       	3887904.000       
J-804           	5362026.610       	3888894.000       
J-805           	5361996.390       	3888620.000       
J-806           	5362443.250       	3888863.000       
J-807           	5366745.230       	3892496.000       
J-808           	5363593.900       	3881790.000       
J-809           	5363184.080       	3882132.000       
J-81            	5369021.740       	3887422.000       
J-810           	5375704.400       	3901003.000       
J-811           	5376350.280       	3901457.000       
J-812           	5366453.740       	3886644.000       
J-813           	5367173.980       	3887065.000       
J-814           	5368941.520       	3887042.000       
J-815           	5365232.190       	3889605.000       
J-816           	5362336.860       	3884034.000       
J-817           	5372482.540       	3885765.000       
J-818           	5365824.880       	3896829.000       
J-819           	5366551.840       	3889669.000       
J-82            	5369251.500       	3887856.000       
J-820           	5369440.200       	3889088.000       
J-821           	5369627.140       	3889262.000       
J-822           	5372567.870       	3898703.000       
J-823           	5368195.160       	3884176.000       
J-824           	5366629.560       	3889594.000       
J-825           	5368256.050       	3884432.000       
J-826           	5360901.670       	3890731.000       
J-827           	5364430.930       	3879398.000       
J-828           	5365920.920       	3896716.000       
J-829           	5361293.330       	3891484.000       
J-83            	5371610.560       	3893168.000       
J-830           	5361111.810       	3879887.000       
J-831           	5364853.260       	3890674.000       
J-832           	5364711.090       	3891233.000       
J-833           	5365816.780       	3878398.000       
J-834           	5365738.250       	3878478.000       
J-835           	5369410.340       	3891435.000       
J-836           	5380979.920       	3890978.000       
J-837           	5378374.720       	3887587.000       
J-838           	5376149.390       	3889566.000       
J-839           	5369821.150       	3890109.000       
J-84            	5371681.630       	3893384.000       
J-840           	5365680.580       	3889722.000       
J-841           	5366391.530       	3890652.000       
J-842           	5363909.710       	3889274.000       
J-843           	5367826.230       	3884452.000       
J-844           	5373088.460       	3886394.000       
J-845           	5372701.010       	3886679.000       
J-846           	5364006.050       	3891523.000       
J-847           	5364658.030       	3891255.000       
J-848           	5372661.350       	3887395.000       
J-849           	5372194.410       	3887889.000       
J-85            	5375198.830       	3887445.000       
J-850           	5367001.120       	3880753.000       
J-851           	5364246.090       	3894176.000       
J-852           	5384888.830       	3889507.000       
J-853           	5384874.440       	3890137.000       
J-854           	5373617.400       	3888314.000       
J-855           	5374676.430       	3887912.000       
J-856           	5373697.240       	3888289.000       
J-857           	5362733.810       	3894985.000       
J-858           	5363666.210       	3881320.000       
J-859           	5363071.740       	3889953.000       
J-86            	5375054.250       	3887159.000       
J-860           	5373601.130       	3884958.000       
J-861           	5376480.210       	3891254.000       
J-862           	5376956.490       	3891301.000       
J-863           	5364219.310       	3896352.000       
J-864           	5377158.240       	3891463.000       
J-865           	5361304.710       	3884584.000       
J-866           	5361221.000       	3884559.000       
J-867           	5367000.640       	3889939.000       
J-868           	5367086.520       	3890126.000       
J-869           	5378736.410       	3890923.000       
J-87            	5371375.730       	3886078.000       
J-870           	5362072.500       	3889073.000       
J-871           	5363224.420       	3888652.000       
J-872           	5371880.500       	3895122.000       
J-873           	5363346.330       	3884014.000       
J-874           	5375384.650       	3886412.000       
J-875           	5362974.960       	3887444.000       
J-876           	5362826.020       	3887299.000       
J-877           	5364740.580       	3892807.000       
J-878           	5364999.580       	3892715.000       
J-879           	5371558.600       	3889611.000       
J-88            	5368804.760       	3887468.000       
J-880           	5371233.260       	3889054.000       
J-881           	5363088.300       	3890106.000       
J-882           	5363589.830       	3889943.000       
J-883           	5374218.340       	3892326.000       
J-884           	5375096.820       	3891983.000       
J-885           	5373395.400       	3890305.000       
J-886           	5376054.050       	3892432.000       
J-887           	5364873.660       	3886331.000       
J-888           	5376010.210       	3890659.000       
J-889           	5363948.620       	3886797.000       
J-89            	5369101.440       	3887882.000       
J-890           	5363644.180       	3894487.000       
J-891           	5374030.610       	3889159.000       
J-892           	5360989.020       	3891604.000       
J-893           	5361605.750       	3880367.000       
J-894           	5370121.330       	3890550.000       
J-895           	5364951.600       	3892076.000       
J-896           	5375005.540       	3899684.000       
J-897           	5383180.470       	3891484.000       
J-898           	5383173.040       	3891644.000       
J-899           	5379163.700       	3886351.000       
J-9             	5372820.610       	3890520.000       
J-90            	5364531.850       	3883447.000       
J-900           	5379228.490       	3885971.000       
J-901           	5365750.260       	3880213.000       
J-902           	5365571.270       	3878158.000       
J-903           	5365114.730       	3878314.000       
J-904           	5377013.590       	3886437.000       
J-905           	5375186.930       	3885273.000       
J-906           	5367196.090       	3887831.000       
J-907           	5366894.210       	3887920.000       
J-908           	5366226.440       	3881482.000       
J-909           	5365931.140       	3881379.000       
J-91            	5364582.370       	3883401.000       
J-910           	5365279.200       	3880370.000       
J-911           	5369201.170       	3891072.000       
J-912           	5369300.440       	3891008.000       
J-913           	5368506.820       	3891503.000       
J-914           	5375661.680       	3890480.000       
J-915           	5375871.930       	3890483.000       
J-916           	5369934.460       	3885570.000       
J-917           	5365054.060       	3893774.000       
J-918           	5365016.870       	3893701.000       
J-919           	5375281.580       	3892321.000       
J-92            	5364587.830       	3883397.000       
J-920           	5364587.430       	3894776.000       
J-921           	5371271.830       	3889774.000       
J-922           	5368720.490       	3885456.000       
J-923           	5368288.480       	3885335.000       
J-924           	5383356.060       	3891846.000       
J-925           	5383244.530       	3891637.000       
J-926           	5377308.140       	3893138.000       
J-927           	5364502.990       	3890742.000       
J-928           	5364799.240       	3890374.000       
J-929           	5374546.280       	3890827.000       
J-93            	5372787.660       	3891928.000       
J-930           	5361541.580       	3878435.000       
J-931           	5368743.730       	3903609.000       
J-932           	5364872.900       	3904029.000       
J-933           	5374130.580       	3897122.000       
J-934           	5374570.900       	3887982.000       
J-935           	5364673.290       	3887645.000       
J-936           	5382520.600       	3891693.000       
J-937           	5382489.810       	3891233.000       
J-938           	5381523.750       	3890636.000       
J-939           	5382826.350       	3890675.000       
J-94            	5372997.150       	3891869.000       
J-940           	5376160.030       	3901036.000       
J-941           	5371763.340       	3887519.000       
J-942           	5378820.980       	3886376.000       
J-943           	5367376.090       	3892699.000       
J-944           	5374120.440       	3888132.000       
J-945           	5372533.540       	3888547.000       
J-946           	5366573.760       	3890981.000       
J-947           	5366368.660       	3891239.000       
J-948           	5370782.690       	3892411.000       
J-949           	5370332.630       	3891496.000       
J-95            	5372836.190       	3891484.000       
J-950           	5366131.500       	3877490.000       
J-951           	5366263.440       	3878530.000       
J-952           	5370406.620       	3892548.000       
J-953           	5365918.990       	3884049.000       
J-954           	5365589.520       	3877917.000       
J-955           	5367325.670       	3889853.000       
J-956           	5361335.140       	3880724.000       
J-957           	5367532.460       	3889555.000       
J-958           	5367531.130       	3889280.000       
J-959           	5366579.130       	3892413.000       
J-96            	5372412.310       	3891646.000       
J-960           	5366866.570       	3889274.000       
J-961           	5363181.800       	3887096.000       
J-962           	5363832.690       	3880267.000       
J-963           	5363636.980       	3884144.000       
J-964           	5363936.090       	3882746.000       
J-965           	5366725.770       	3880968.000       
J-966           	5373902.260       	3890114.000       
J-967           	5362722.820       	3887178.000       
J-968           	5365155.910       	3883640.000       
J-969           	5378184.370       	3887675.000       
J-97            	5372248.750       	3891711.000       
J-970           	5382606.690       	3893080.000       
J-971           	5382797.070       	3893097.000       
J-972           	5383688.310       	3891675.000       
J-973           	5378249.030       	3886407.000       
J-974           	5378321.440       	3886687.000       
J-975           	5382773.160       	3891675.000       
J-976           	5383068.570       	3892109.000       
J-977           	5383045.510       	3891661.000       
J-978           	5365512.450       	3882503.000       
J-979           	5365298.000       	3881705.000       
J-98            	5365253.310       	3883709.000       
J-980           	5378136.830       	3887705.000       
J-981           	5383609.420       	3891256.000       
J-982           	5361931.310       	3887746.000       
J-983           	5362028.270       	3887725.000       
J-984           	5363297.510       	3879413.000       
J-985           	5363070.960       	3879393.000       
J-986           	5372773.370       	3885747.000       
J-987           	5370577.150       	3891971.000       
J-988           	5369919.130       	3888804.000       
J-989           	5369573.020       	3888385.000       
J-99            	5373383.480       	3892218.000       
J-990           	5380900.000       	3893127.000       
J-991           	5366851.700       	3890867.000       
J-992           	5372792.030       	3891493.000       
J-993           	5376869.490       	3886208.000       
J-994           	5376858.630       	3886080.000       
J-995           	5379132.230       	3885543.000       
J-996           	5376126.010       	3889408.000       
J-997           	5377123.250       	3886137.000       
J-998           	5371639.660       	3888759.000       
J-999           	5360632.790       	3897521.000       
O-Pump-1        	5351507.420       	3852683.000       
O-Pump-2        	5367702.810       	3877063.000       
O-Pump-4        	5360141.460       	3872779.000       
O-Pump-5        	5361184.490       	3871881.000       
I-AV-100        	5367284.740       	3893906.000       
O-AV-101        	5381578.410       	3890390.000       
I-AV-105        	5367332.570       	3892402.000       
I-AV-106        	5367475.660       	3892246.000       
O-AV-107        	5367213.270       	3892267.000       
I-AV-108        	5366006.030       	3893622.000       
O-AV-109        	5365432.830       	3893448.000       
I-AV-110        	5365700.250       	3893307.000       
O-AV-111        	5365146.300       	3893912.000       
O-AV-112        	5384919.110       	3890653.000       
O-AV-113        	5382818.880       	3890865.000       
I-AV-114        	5364640.300       	3893990.000       
I-AV-115        	5364321.490       	3894319.000       
I-AV-12         	5371801.620       	3890864.000       
I-AV-122        	5359250.730       	3896669.000       
O-AV-123        	5359804.760       	3896417.000       
O-AV-125        	5366159.700       	3895463.000       
O-AV-126        	5364731.510       	3896367.000       
O-AV-127        	5364297.150       	3896591.000       
I-AV-128        	5363682.490       	3893738.000       
I-AV-129        	5364274.120       	3893240.000       
O-AV-130        	5364532.740       	3893440.000       
O-AV-131        	5364880.270       	3893808.000       
O-AV-134        	5363056.260       	3891869.000       
I-AV-135        	5382226.060       	3892932.000       
O-AV-136        	5362431.230       	3891999.000       
O-AV-137        	5363670.550       	3891340.000       
O-AV-138        	5363486.350       	3891708.000       
O-AV-139        	5363916.380       	3891564.000       
O-AV-142        	5364712.910       	3891372.000       
I-AV-143        	5364923.200       	3891205.000       
I-AV-144        	5364634.410       	3891029.000       
I-AV-145        	5365427.650       	3891212.000       
I-AV-146        	5380034.730       	3891867.000       
O-AV-147        	5365159.680       	3890757.000       
O-AV-149        	5365672.570       	3891130.000       
O-AV-150        	5365343.640       	3890589.000       
I-AV-152        	5364941.640       	3891594.000       
I-AV-153        	5365191.950       	3891599.000       
I-AV-155        	5365049.520       	3891870.000       
I-AV-156        	5365174.010       	3892127.000       
I-AV-158        	5364773.220       	3892187.000       
I-AV-16         	5372336.660       	3890669.000       
I-AV-160        	5364910.800       	3892786.000       
I-AV-162        	5366145.250       	3892774.000       
O-AV-163        	5366327.230       	3892693.000       
O-AV-165        	5365906.690       	3892734.000       
O-AV-166        	5367389.070       	3893516.000       
I-AV-168        	5379967.950       	3892222.000       
O-AV-169        	5368836.090       	3892326.000       
O-AV-170        	5369222.580       	3892368.000       
O-AV-171        	5369046.300       	3891943.000       
O-AV-173        	5368365.700       	3891265.000       
I-AV-174        	5369588.470       	3891389.000       
O-AV-175        	5369641.880       	3890991.000       
O-AV-177        	5369563.220       	3891676.000       
O-AV-178        	5369713.040       	3891863.000       
O-AV-179        	5379502.480       	3891300.000       
O-AV-18         	5372560.410       	3890953.000       
O-AV-180        	5369976.950       	3891714.000       
O-AV-181        	5370264.130       	3891688.000       
I-AV-183        	5370102.650       	3892182.000       
I-AV-185        	5370513.300       	3892214.000       
O-AV-186        	5370386.850       	3892847.000       
O-AV-189        	5371120.410       	3893059.000       
O-AV-190        	5379123.070       	3890918.000       
O-AV-191        	5370648.390       	3892466.000       
I-AV-194        	5370058.010       	3890843.000       
O-AV-195        	5375599.580       	3892213.000       
I-AV-196        	5379155.550       	3895860.000       
I-AV-198        	5366423.260       	3889737.000       
O-AV-199        	5365991.440       	3889690.000       
O-AV-200        	5366130.700       	3889484.000       
O-AV-201        	5378823.630       	3891074.000       
O-AV-203        	5365750.710       	3889199.000       
I-AV-204        	5366049.840       	3889174.000       
O-AV-205        	5366551.350       	3889470.000       
I-AV-206        	5366743.310       	3889666.000       
O-AV-208        	5366573.350       	3888970.000       
I-AV-209        	5366582.840       	3888591.000       
O-AV-211        	5366984.130       	3889278.000       
O-AV-212        	5378525.610       	3891806.000       
O-AV-215        	5367897.310       	3889125.000       
I-AV-216        	5367232.360       	3889004.000       
O-AV-217        	5367170.180       	3888745.000       
I-AV-218        	5368052.420       	3888890.000       
O-AV-219        	5368175.830       	3889288.000       
O-AV-22         	5372866.010       	3891014.000       
O-AV-222        	5367897.900       	3888533.000       
I-AV-223        	5385060.070       	3890214.000       
I-AV-224        	5377876.860       	3890714.000       
O-AV-225        	5367187.210       	3888413.000       
O-AV-226        	5367246.790       	3888145.000       
O-AV-228        	5368133.450       	3888207.000       
O-AV-229        	5367820.630       	3889620.000       
I-AV-231        	5369786.090       	3889291.000       
I-AV-233        	5370166.030       	3888705.000       
I-AV-234        	5369895.130       	3888587.000       
O-AV-235        	5377600.850       	3890577.000       
O-AV-236        	5369689.710       	3888554.000       
I-AV-237        	5369676.700       	3888681.000       
O-AV-238        	5369199.040       	3888703.000       
O-AV-239        	5369091.680       	3888131.000       
O-AV-241        	5368645.500       	3888495.000       
I-AV-243        	5370240.340       	3887314.000       
O-AV-244        	5368908.980       	3887224.000       
I-AV-245        	5369186.070       	3886855.000       
I-AV-246        	5376893.200       	3890866.000       
O-AV-25         	5373328.560       	3890612.000       
I-AV-250        	5371178.090       	3886767.000       
I-AV-252        	5371523.320       	3886944.000       
I-AV-253        	5371727.230       	3887211.000       
I-AV-254        	5371219.040       	3886478.000       
I-AV-255        	5371669.550       	3887621.000       
O-AV-256        	5371940.490       	3888327.000       
O-AV-257        	5377244.640       	3890615.000       
I-AV-258        	5371462.220       	3888168.000       
O-AV-259        	5372436.390       	3888204.000       
I-AV-26         	5372986.650       	3890329.000       
O-AV-260        	5372617.190       	3888258.000       
I-AV-261        	5372358.060       	3888023.000       
O-AV-262        	5372266.800       	3887828.000       
I-AV-263        	5372139.140       	3887683.000       
O-AV-265        	5372846.810       	3887610.000       
I-AV-266        	5373087.800       	3887761.000       
I-AV-267        	5372716.260       	3887837.000       
O-AV-268        	5377159.090       	3890416.000       
O-AV-269        	5373049.410       	3887428.000       
I-AV-27         	5373048.120       	3890565.000       
I-AV-271        	5373406.870       	3887740.000       
I-AV-273        	5373863.700       	3887887.000       
I-AV-274        	5373995.830       	3887745.000       
I-AV-275        	5373799.980       	3886753.000       
I-AV-276        	5373562.920       	3886633.000       
I-AV-277        	5374183.230       	3886733.000       
O-AV-279        	5376971.130       	3890597.000       
O-AV-28         	5373390.300       	3891278.000       
I-AV-281        	5374849.230       	3887527.000       
I-AV-282        	5374646.600       	3887146.000       
I-AV-283        	5374872.580       	3887280.000       
I-AV-286        	5375104.750       	3887835.000       
O-AV-287        	5375144.300       	3887685.000       
O-AV-290        	5377150.550       	3890857.000       
O-AV-291        	5375149.800       	3887309.000       
I-AV-292        	5375386.490       	3887614.000       
I-AV-293        	5375702.340       	3887491.000       
I-AV-294        	5375468.720       	3887175.000       
I-AV-296        	5375171.930       	3886568.000       
I-AV-297        	5375774.450       	3886932.000       
O-AV-298        	5375975.550       	3887281.000       
I-AV-299        	5375217.900       	3888232.000       
O-AV-3          	5373567.730       	3891679.000       
O-AV-302        	5374735.800       	3888045.000       
I-AV-305        	5374410.100       	3887615.000       
I-AV-306        	5374494.920       	3887932.000       
O-AV-307        	5374540.740       	3887832.000       
I-AV-308        	5374669.900       	3888261.000       
I-AV-31         	5373743.110       	3890425.000       
O-AV-310        	5374951.370       	3888269.000       
O-AV-312        	5376984.770       	3890337.000       
I-AV-313        	5374157.980       	3888211.000       
O-AV-315        	5374298.170       	3888060.000       
O-AV-319        	5373907.730       	3888222.000       
I-AV-32         	5373857.330       	3890820.000       
I-AV-320        	5373587.920       	3888119.000       
I-AV-321        	5374339.250       	3888648.000       
I-AV-322        	5374430.650       	3888474.000       
O-AV-323        	5376809.190       	3891144.000       
O-AV-325        	5374093.430       	3888640.000       
O-AV-327        	5373816.270       	3888896.000       
O-AV-330        	5373937.610       	3888601.000       
O-AV-334        	5384936.720       	3889801.000       
I-AV-335        	5377277.500       	3891536.000       
I-AV-338        	5373899.550       	3888127.000       
O-AV-341        	5373351.800       	3889390.000       
I-AV-342        	5373604.870       	3889200.000       
I-AV-343        	5373513.210       	3889566.000       
O-AV-344        	5373480.000       	3889886.000       
O-AV-345        	5373286.130       	3889506.000       
I-AV-346        	5377057.550       	3891529.000       
I-AV-348        	5373893.870       	3889396.000       
I-AV-349        	5373959.600       	3889272.000       
I-AV-352        	5374167.020       	3889292.000       
I-AV-354        	5374121.830       	3889115.000       
I-AV-355        	5374315.570       	3889029.000       
I-AV-357        	5377211.500       	3891776.000       
I-AV-358        	5374297.200       	3888847.000       
I-AV-359        	5374468.250       	3889151.000       
I-AV-36         	5373983.840       	3890585.000       
I-AV-360        	5374656.830       	3889076.000       
I-AV-361        	5374370.340       	3890066.000       
I-AV-363        	5374230.990       	3889836.000       
O-AV-364        	5374279.970       	3889740.000       
O-AV-366        	5373994.870       	3889032.000       
I-AV-369        	5374913.470       	3889765.000       
I-AV-37         	5373306.780       	3890332.000       
I-AV-370        	5374663.720       	3889550.000       
I-AV-371        	5375179.360       	3889578.000       
O-AV-372        	5375189.570       	3889314.000       
O-AV-374        	5375456.570       	3889386.000       
I-AV-375        	5375607.990       	3889595.000       
O-AV-376        	5375786.630       	3889634.000       
O-AV-377        	5376353.280       	3890657.000       
I-AV-378        	5376152.790       	3890400.000       
I-AV-379        	5376998.100       	3892816.000       
O-AV-380        	5376303.330       	3890464.000       
O-AV-381        	5375875.710       	3890655.000       
O-AV-382        	5376087.860       	3890581.000       
I-AV-383        	5375832.140       	3890565.000       
I-AV-384        	5375394.710       	3891863.000       
O-AV-385        	5375376.350       	3891306.000       
I-AV-388        	5374944.530       	3890203.000       
O-AV-389        	5376128.030       	3889496.000       
I-AV-39         	5373781.650       	3890175.000       
O-AV-390        	5376669.800       	3892392.000       
O-AV-391        	5376062.630       	3889344.000       
O-AV-393        	5376182.280       	3889254.000       
I-AV-398        	5376328.620       	3889058.000       
O-AV-40         	5373546.690       	3889732.000       
I-AV-401        	5375996.350       	3892371.000       
I-AV-402        	5374869.480       	3888872.000       
I-AV-403        	5375115.750       	3888914.000       
O-AV-404        	5374938.260       	3888741.000       
O-AV-405        	5376646.850       	3888339.000       
O-AV-406        	5376411.080       	3888382.000       
I-AV-407        	5376509.600       	3888644.000       
O-AV-408        	5376626.620       	3888533.000       
I-AV-409        	5376490.410       	3888457.000       
O-AV-41         	5373785.990       	3889810.000       
O-AV-413        	5376950.030       	3887950.000       
I-AV-415        	5376923.390       	3888942.000       
I-AV-416        	5376530.290       	3889231.000       
I-AV-417        	5376712.740       	3889169.000       
O-AV-418        	5376420.250       	3889497.000       
O-AV-419        	5376843.130       	3889095.000       
I-AV-421        	5377065.740       	3889213.000       
O-AV-423        	5376122.840       	3892312.000       
I-AV-424        	5377023.370       	3889554.000       
I-AV-425        	5377145.700       	3889376.000       
I-AV-426        	5376945.210       	3890018.000       
I-AV-429        	5377272.520       	3889858.000       
O-AV-43         	5373883.770       	3889524.000       
O-AV-431        	5377780.770       	3889638.000       
I-AV-432        	5378080.910       	3889456.000       
O-AV-435        	5377731.600       	3889335.000       
O-AV-436        	5377684.090       	3889083.000       
O-AV-438        	5377896.900       	3888960.000       
I-AV-44         	5374161.820       	3890018.000       
I-AV-440        	5378287.560       	3888919.000       
O-AV-442        	5378094.510       	3889090.000       
O-AV-444        	5378116.760       	3888492.000       
I-AV-445        	5385356.520       	3889679.000       
O-AV-446        	5376194.950       	3892212.000       
I-AV-450        	5377972.660       	3887742.000       
O-AV-451        	5377197.250       	3887845.000       
I-AV-452        	5377214.290       	3887338.000       
I-AV-453        	5377388.450       	3887188.000       
I-AV-454        	5377307.290       	3886931.000       
I-AV-455        	5377153.550       	3886697.000       
O-AV-456        	5376909.150       	3886329.000       
I-AV-46         	5383423.150       	3890646.000       
O-AV-460        	5376923.460       	3886607.000       
I-AV-462        	5375284.550       	3886096.000       
I-AV-465        	5374468.450       	3886632.000       
I-AV-467        	5374634.490       	3886834.000       
I-AV-469        	5373629.580       	3886433.000       
O-AV-47         	5372146.530       	3889653.000       
I-AV-470        	5373263.310       	3886240.000       
O-AV-471        	5372876.060       	3886234.000       
I-AV-472        	5372959.140       	3886821.000       
I-AV-473        	5372927.360       	3886538.000       
O-AV-474        	5372591.790       	3886512.000       
I-AV-475        	5372315.380       	3886420.000       
I-AV-477        	5372434.510       	3886929.000       
I-AV-478        	5372020.310       	3887058.000       
O-AV-479        	5375565.500       	3892093.000       
O-AV-480        	5372326.280       	3887078.000       
O-AV-481        	5371238.550       	3886210.000       
O-AV-482        	5371723.300       	3886532.000       
I-AV-483        	5371738.040       	3886254.000       
O-AV-485        	5372331.370       	3886075.000       
O-AV-487        	5372623.690       	3885519.000       
I-AV-488        	5372458.170       	3885632.000       
I-AV-489        	5372027.460       	3885550.000       
I-AV-49         	5371630.340       	3889604.000       
I-AV-490        	5376012.580       	3891732.000       
O-AV-493        	5370951.950       	3885234.000       
O-AV-494        	5370721.000       	3885519.000       
O-AV-495        	5370242.780       	3885130.000       
O-AV-496        	5370266.930       	3884445.000       
I-AV-497        	5370614.840       	3885714.000       
I-AV-498        	5369621.210       	3885811.000       
I-AV-499        	5369730.970       	3886114.000       
O-AV-5          	5373626.510       	3891460.000       
O-AV-50         	5371889.630       	3889283.000       
I-AV-503        	5369245.290       	3885383.000       
O-AV-505        	5368734.150       	3885043.000       
O-AV-506        	5368576.280       	3885492.000       
I-AV-507        	5368661.930       	3886016.000       
I-AV-509        	5369026.980       	3884641.000       
O-AV-51         	5371718.430       	3888887.000       
O-AV-510        	5369073.310       	3884334.000       
I-AV-511        	5368721.740       	3884416.000       
O-AV-514        	5367782.930       	3884906.000       
I-AV-515        	5367468.620       	3884602.000       
O-AV-516        	5365636.510       	3886191.000       
I-AV-518        	5365980.740       	3886352.000       
I-AV-519        	5366236.150       	3886207.000       
I-AV-52         	5372226.810       	3889344.000       
O-AV-520        	5365182.980       	3886123.000       
O-AV-522        	5365359.840       	3885880.000       
I-AV-523        	5375781.100       	3891682.000       
I-AV-524        	5366920.700       	3886951.000       
I-AV-525        	5367665.490       	3887039.000       
I-AV-526        	5367391.810       	3887426.000       
I-AV-527        	5367082.260       	3887958.000       
I-AV-528        	5366703.120       	3887887.000       
I-AV-529        	5365724.320       	3888818.000       
O-AV-530        	5363978.710       	3889431.000       
I-AV-531        	5364009.720       	3888831.000       
O-AV-532        	5363310.050       	3890660.000       
O-AV-533        	5366770.160       	3880234.000       
I-AV-534        	5375913.250       	3891542.000       
I-AV-535        	5366810.300       	3880523.000       
O-AV-536        	5366541.520       	3880788.000       
O-AV-537        	5366315.400       	3881107.000       
O-AV-539        	5365581.730       	3881583.000       
O-AV-540        	5365829.700       	3881729.000       
O-AV-541        	5365433.760       	3881760.000       
I-AV-542        	5365775.480       	3882260.000       
I-AV-543        	5365330.690       	3882573.000       
I-AV-545        	5376093.550       	3891310.000       
O-AV-546        	5364975.200       	3882638.000       
O-AV-548        	5365037.450       	3883200.000       
O-AV-549        	5364872.430       	3883082.000       
I-AV-55         	5371969.410       	3888504.000       
O-AV-550        	5365328.080       	3883870.000       
O-AV-551        	5365584.120       	3884026.000       
O-AV-552        	5366283.470       	3884105.000       
O-AV-554        	5366548.600       	3883930.000       
O-AV-557        	5376237.820       	3891404.000       
I-AV-559        	5366275.610       	3884526.000       
O-AV-56         	5371387.680       	3889206.000       
I-AV-562        	5365785.300       	3885241.000       
I-AV-563        	5365754.370       	3885022.000       
I-AV-564        	5363777.250       	3883333.000       
I-AV-568        	5376326.920       	3891549.000       
I-AV-569        	5363815.570       	3882648.000       
O-AV-57         	5380875.060       	3890428.000       
O-AV-572        	5364119.970       	3882208.000       
I-AV-574        	5364415.490       	3881810.000       
I-AV-576        	5364869.680       	3881594.000       
O-AV-577        	5364455.340       	3881458.000       
I-AV-579        	5376497.200       	3891625.000       
O-AV-58         	5371307.410       	3888763.000       
O-AV-581        	5365119.200       	3880817.000       
O-AV-582        	5365413.510       	3880755.000       
O-AV-583        	5366017.830       	3879797.000       
I-AV-584        	5364961.320       	3879707.000       
I-AV-585        	5364522.790       	3880127.000       
O-AV-586        	5364788.940       	3880336.000       
O-AV-589        	5364803.080       	3880145.000       
I-AV-590        	5376727.000       	3891679.000       
O-AV-591        	5364839.840       	3879345.000       
O-AV-593        	5364473.230       	3879678.000       
O-AV-594        	5363880.280       	3880831.000       
O-AV-595        	5364234.530       	3880862.000       
I-AV-597        	5363967.980       	3881083.000       
O-AV-598        	5363982.360       	3879908.000       
I-AV-599        	5363820.540       	3879766.000       
O-AV-6          	5373956.020       	3891681.000       
O-AV-60         	5370846.860       	3888645.000       
O-AV-600        	5376294.790       	3893568.000       
O-AV-603        	5363478.530       	3878061.000       
I-AV-604        	5362844.070       	3879844.000       
I-AV-605        	5362958.150       	3877973.000       
I-AV-606        	5362490.010       	3878226.000       
I-AV-609        	5362732.910       	3878340.000       
I-AV-61         	5370480.570       	3888803.000       
O-AV-611        	5375958.600       	3893720.000       
I-AV-613        	5362430.700       	3880172.000       
I-AV-616        	5362406.590       	3879894.000       
O-AV-617        	5361814.380       	3879996.000       
O-AV-618        	5361776.530       	3880363.000       
O-AV-619        	5361923.010       	3880454.000       
I-AV-62         	5370246.170       	3888857.000       
I-AV-621        	5362544.010       	3880711.000       
O-AV-622        	5375930.920       	3893507.000       
I-AV-624        	5362202.920       	3881311.000       
O-AV-625        	5362049.000       	3881059.000       
I-AV-627        	5361975.450       	3881400.000       
O-AV-628        	5363216.120       	3881550.000       
O-AV-630        	5363350.290       	3881950.000       
I-AV-631        	5363322.520       	3882328.000       
I-AV-632        	5363695.360       	3882165.000       
O-AV-633        	5375359.850       	3893405.000       
I-AV-634        	5361497.130       	3879955.000       
I-AV-635        	5361328.370       	3880177.000       
I-AV-636        	5361229.590       	3880470.000       
O-AV-637        	5360963.320       	3880460.000       
O-AV-638        	5360866.360       	3880728.000       
I-AV-64         	5370778.050       	3889327.000       
O-AV-641        	5380351.830       	3887679.000       
O-AV-642        	5379773.760       	3887836.000       
I-AV-643        	5379507.270       	3887554.000       
O-AV-646        	5378441.990       	3887417.000       
O-AV-647        	5378473.260       	3885858.000       
O-AV-648        	5378986.810       	3885649.000       
O-AV-649        	5379034.190       	3885949.000       
O-AV-650        	5378346.160       	3886165.000       
O-AV-654        	5378786.140       	3885263.000       
O-AV-655        	5375250.340       	3893163.000       
O-AV-656        	5363575.860       	3890418.000       
O-AV-657        	5372219.280       	3899550.000       
I-AV-659        	5373288.870       	3899542.000       
I-AV-66         	5369613.480       	3890379.000       
O-AV-660        	5373039.610       	3898989.000       
O-AV-661        	5373953.010       	3898974.000       
I-AV-662        	5374678.130       	3899199.000       
I-AV-663        	5374203.030       	3898319.000       
O-AV-665        	5370884.520       	3899137.000       
I-AV-666        	5386570.390       	3888609.000       
O-AV-667        	5375356.860       	3892982.000       
I-AV-669        	5373447.020       	3897743.000       
I-AV-67         	5369782.170       	3890861.000       
I-AV-671        	5373878.610       	3897418.000       
I-AV-672        	5374352.090       	3896187.000       
I-AV-674        	5373516.600       	3895324.000       
I-AV-675        	5370792.260       	3895358.000       
O-AV-677        	5367408.140       	3880643.000       
I-AV-678        	5374817.060       	3893007.000       
O-AV-679        	5370321.080       	3880657.000       
O-AV-680        	5367240.080       	3878729.000       
O-AV-681        	5362516.720       	3877220.000       
I-AV-682        	5366097.540       	3875949.000       
O-AV-683        	5361241.990       	3873890.000       
I-AV-684        	5362744.090       	3873791.000       
I-AV-685        	5358265.020       	3868963.000       
I-AV-686        	5355269.570       	3862365.000       
I-AV-688        	5352852.820       	3853817.000       
O-AV-689        	5374582.230       	3892964.000       
O-AV-691        	5357692.140       	3897797.000       
O-AV-692        	5369287.350       	3883738.000       
I-AV-693        	5368556.940       	3882927.000       
I-AV-694        	5368886.690       	3883026.000       
I-AV-695        	5368905.880       	3882701.000       
O-AV-696        	5368555.670       	3882644.000       
O-AV-7          	5373967.860       	3891506.000       
I-AV-701        	5369683.090       	3882269.000       
O-AV-703        	5370682.920       	3882799.000       
I-AV-704        	5371096.160       	3882639.000       
O-AV-705        	5371637.380       	3882850.000       
I-AV-706        	5372211.250       	3885757.000       
I-AV-707        	5372965.700       	3885730.000       
O-AV-709        	5373400.930       	3885061.000       
O-AV-710        	5373370.970       	3884567.000       
O-AV-711        	5375254.310       	3892453.000       
I-AV-713        	5373223.350       	3885771.000       
O-AV-714        	5373489.440       	3885859.000       
O-AV-716        	5375049.890       	3892390.000       
I-AV-717        	5375230.100       	3892217.000       
O-AV-718        	5375781.080       	3892912.000       
O-AV-720        	5374802.420       	3892099.000       
O-AV-721        	5383658.980       	3891387.000       
O-AV-722        	5375620.100       	3894534.000       
O-AV-73         	5369071.440       	3889922.000       
O-AV-730        	5372930.660       	3894062.000       
I-AV-731        	5371761.280       	3893488.000       
O-AV-733        	5371559.580       	3893019.000       
O-AV-735        	5372857.730       	3892092.000       
O-AV-736        	5373066.850       	3891986.000       
I-AV-737        	5372283.370       	3891945.000       
I-AV-738        	5372354.390       	3891536.000       
O-AV-739        	5372716.440       	3891299.000       
O-AV-74         	5368738.370       	3890078.000       
O-AV-740        	5373283.830       	3891918.000       
I-AV-78         	5368487.450       	3890255.000       
O-AV-8          	5373824.860       	3891344.000       
I-AV-80         	5368123.260       	3890018.000       
I-AV-82         	5367422.420       	3890586.000       
O-AV-84         	5367820.060       	3891478.000       
I-AV-85         	5368397.470       	3891672.000       
O-AV-86         	5367401.060       	3892025.000       
O-AV-89         	5366211.120       	3890931.000       
O-AV-91         	5366117.420       	3890698.000       
O-AV-93         	5366772.590       	3892559.000       
O-AV-94         	5366551.740       	3892642.000       
O-AV-99         	5367126.620       	3893573.000       
I-Pump-1        	5351507.420       	3852683.000       
I-Pump-2        	5367702.810       	3877063.000       
I-Pump-4        	5360141.460       	3872779.000       
I-Pump-5        	5361184.490       	3871881.000       
R-1             	5350303.710       	3852170.000       
R-2             	5358653.180       	3870697.000       
T-1             	5375496.980       	3889659.000       
T-2             	5379225.950       	3891623.000       
T-3             	5374630.710       	3893315.000       
T-4             	5374292.470       	3897329.000       
T-5             	5361406.090       	3896526.000       

[VERTICES]
;Link            	X-Coord           	Y-Coord
P-1032          	5376526.920       	3895733.070       
P-1059          	5366954.780       	3893374.110       
P-1099          	5372184.260       	3890748.870       
P-11            	5373784.440       	3892874.290       
P-1112          	5373654.770       	3888429.140       
P-1120          	5362303.880       	3882490.010       
P-1190          	5375480.450       	3893199.280       
P-121           	5369355.440       	3885524.250       
P-1213          	5374237.010       	3897817.880       
P-1222          	5363076.110       	3892274.140       
P-1222          	5363364.940       	3893019.160       
P-1229          	5374442.040       	3895695.360       
P-1249          	5369218.840       	3890869.310       
P-1298          	5380119.590       	3892479.910       
P-13            	5362374.310       	3879672.040       
P-1300          	5383177.540       	3890971.930       
P-1300          	5383110.500       	3891155.940       
P-1310          	5383383.430       	3891648.610       
P-1337          	5378424.660       	3889050.030       
P-135           	5372086.450       	3886603.110       
P-1387          	5372525.510       	3891103.580       
P-1396          	5366588.710       	3883728.380       
P-1399          	5371710.510       	3889764.320       
P-1440          	5369262.900       	3890772.160       
P-1441          	5366299.680       	3884210.790       
P-146           	5373489.950       	3892747.730       
P-146           	5373256.300       	3892757.080       
P-1466          	5362631.590       	3880392.690       
P-1471          	5369255.940       	3890499.110       
P-1479          	5363790.610       	3878647.500       
P-1483          	5367248.590       	3889374.060       
P-1492          	5370174.470       	3882935.950       
P-1522          	5375899.030       	3888610.530       
P-1526          	5351708.710       	3852872.720       
P-1533          	5373140.290       	3889154.360       
P-1537          	5372997.800       	3888874.690       
P-1542          	5373364.090       	3888471.060       
P-1547          	5374409.330       	3888037.670       
P-1548          	5374021.750       	3888191.730       
P-1549          	5375067.550       	3888194.500       
P-1549          	5374995.050       	3888233.380       
P-1555          	5373531.210       	3888781.400       
P-1555          	5373344.980       	3888851.600       
P-1562          	5375344.260       	3888660.530       
P-1566          	5374363.240       	3889943.060       
P-1573          	5375803.840       	3892050.320       
P-1591          	5377164.720       	3890018.450       
P-1591          	5377173.190       	3890107.600       
P-1600          	5374578.080       	3887496.790       
P-1603          	5374916.400       	3886835.090       
P-1618          	5373742.710       	3891590.090       
P-1618          	5373810.440       	3891555.240       
P-1629          	5376178.800       	3891741.140       
P-1631          	5372514.950       	3890744.680       
P-1632          	5376008.840       	3892048.430       
P-1633          	5372752.960       	3891051.210       
P-1634          	5372677.660       	3891141.130       
P-1643          	5373278.780       	3890496.480       
P-1644          	5373646.460       	3890713.430       
P-1647          	5374494.200       	3890626.560       
P-1649          	5382473.410       	3892308.070       
P-1652          	5373637.470       	3890388.380       
P-1654          	5373466.360       	3889678.970       
P-1655          	5373727.820       	3889593.050       
P-1656          	5373232.590       	3887133.880       
P-1659          	5372331.850       	3889989.010       
P-1672          	5371185.340       	3888644.070       
P-1673          	5372782.510       	3885970.900       
P-1677          	5370393.520       	3889110.980       
P-1685          	5369853.900       	3889837.080       
P-1695          	5367972.400       	3889837.040       
P-1701          	5366356.910       	3891176.270       
P-1701          	5366345.110       	3891117.070       
P-1709          	5367107.080       	3892976.680       
P-1709          	5367229.500       	3893034.250       
P-1712          	5367032.010       	3893439.650       
P-1714          	5367372.260       	3893852.650       
P-1716          	5372565.720       	3885198.350       
P-1729          	5364382.960       	3894417.220       
P-1731          	5363699.660       	3894611.050       
P-1732          	5359959.670       	3897158.130       
P-1750          	5361923.140       	3892218.620       
P-1755          	5361601.490       	3892129.950       
P-1761          	5364994.320       	3890269.570       
P-1775          	5365811.920       	3892536.630       
P-1777          	5366176.760       	3892345.310       
P-1779          	5365074.820       	3881285.890       
P-1785          	5368946.600       	3891383.060       
P-1786          	5368210.440       	3882000.520       
P-1802          	5370910.460       	3893075.810       
P-1805          	5370483.670       	3892511.940       
P-1819          	5366605.150       	3889235.120       
P-1821          	5377597.250       	3889211.390       
P-1823          	5366737.290       	3888649.250       
P-1828          	5367522.770       	3889371.300       
P-1832          	5368109.000       	3888806.500       
P-1833          	5368149.940       	3889033.550       
P-1846          	5370563.550       	3889321.340       
P-1856          	5368976.350       	3887657.860       
P-1861          	5370660.340       	3887213.690       
P-1863          	5370887.500       	3886827.550       
P-1878          	5372565.810       	3887526.160       
P-1895          	5374937.300       	3887589.960       
P-1915          	5376743.380       	3890666.580       
P-1943          	5373873.020       	3888730.500       
P-1950          	5372974.450       	3889020.510       
P-1951          	5373159.390       	3889039.340       
P-1956          	5373766.890       	3889143.360       
P-1969          	5374400.260       	3888997.650       
P-1999          	5375309.730       	3891171.350       
P-2025          	5377249.440       	3888269.350       
P-2034          	5376925.460       	3889369.120       
P-2036          	5376865.650       	3889625.930       
P-2043          	5377421.040       	3889842.100       
P-2052          	5377879.990       	3888799.350       
P-2057          	5378187.010       	3888635.770       
P-2072          	5377049.790       	3886187.440       
P-2073          	5376459.180       	3886700.880       
P-2100          	5371807.930       	3885713.990       
P-2118          	5369166.700       	3885272.670       
P-2126          	5376147.880       	3891566.800       
P-2130          	5365477.840       	3886124.960       
P-2158          	5365226.160       	3882763.950       
P-2169          	5366658.410       	3884083.520       
P-2169          	5366550.460       	3884148.140       
P-2170          	5386005.880       	3889130.120       
P-2175          	5366049.290       	3885085.930       
P-2179          	5364172.990       	3882644.250       
P-2192          	5364693.260       	3881088.330       
P-2202          	5364802.750       	3879960.920       
P-2208          	5364008.860       	3880614.940       
P-2221          	5362627.560       	3878697.570       
P-2222          	5362509.880       	3879022.450       
P-2226          	5362320.460       	3879801.780       
P-2267          	5378438.250       	3886706.420       
P-2272          	5371596.540       	3899754.280       
P-2278          	5370630.540       	3898531.630       
P-2311          	5369450.930       	3882719.130       
P-2314          	5375313.910       	3892614.420       
P-2322          	5373069.080       	3885220.890       
P-2326          	5373488.040       	3884336.180       
P-2333          	5375207.360       	3892072.880       
P-2337          	5374735.320       	3895298.330       
P-2341          	5374068.110       	3892895.580       
P-2343          	5372732.950       	3894001.160       
P-2348          	5371395.540       	3892343.240       
P-2355          	5373093.490       	3891581.450       

[LABELS]
;X-Coord             Y-Coord             Label & Anchor Node

[BACKDROP]
  DIMENSIONS  	5348448.440       	3849448.200       	5389264.260       	3909327.800       
 UNITS          	None
 FILE           	
 OFFSET         	0.00            	0.00            

[END]
