[TITLE]


[JUNCTIONS]
;ID              	Elev        	Demand      	Pattern         
 O-931_South     	1345.1000   	0.000000    	1               	;
 I-AV-1          	1440.3000   	0.000000    	1               	;
 O-AV-10         	1131.9000   	0.000000    	1               	;
 I-AV-11         	1138.5000   	0.000000    	1               	;
 I-AV-12         	1463.3000   	0.000000    	1               	;
 I-AV-13         	1148.3000   	0.000000    	1               	;
 I-AV-14         	1141.7000   	0.000000    	1               	;
 I-AV-15         	1135.2000   	0.000000    	1               	;
 O-AV-16         	1141.7000   	0.000000    	1               	;
 I-AV-17         	1138.5000   	0.000000    	1               	;
 I-AV-18         	1161.4000   	0.000000    	1               	;
 O-AV-19         	1138.5000   	0.000000    	1               	;
 I-AV-2          	1145.0000   	0.000000    	1               	;
 I-AV-20         	1138.5000   	0.000000    	1               	;
 I-AV-21         	1138.5000   	0.000000    	1               	;
 O-AV-22         	1151.6000   	0.000000    	1               	;
 I-AV-23         	1417.3000   	0.000000    	1               	;
 O-AV-24         	1151.6000   	0.000000    	1               	;
 O-AV-25         	1213.9000   	0.000000    	1               	;
 I-AV-26         	1184.4000   	0.000000    	1               	;
 I-AV-27         	1184.4000   	0.000000    	1               	;
 I-AV-28         	1145.0000   	0.000000    	1               	;
 O-AV-29         	1145.0000   	0.000000    	1               	;
 I-AV-3          	1204.1000   	0.000000    	1               	;
 O-AV-30         	1148.3000   	0.000000    	1               	;
 I-AV-31         	1263.1000   	0.000000    	1               	;
 O-AV-32         	1200.8000   	0.000000    	1               	;
 I-AV-33         	679.1000    	0.000000    	1               	;
 I-AV-34         	1122.1000   	0.000000    	1               	;
 O-AV-35         	839.9000    	0.000000    	1               	;
 O-AV-36         	820.2000    	0.000000    	1               	;
 O-AV-37         	702.1000    	0.000000    	1               	;
 O-AV-38         	876.0000    	0.000000    	1               	;
 I-AV-39         	761.2000    	0.000000    	1               	;
 I-AV-4          	1151.6000   	0.000000    	1               	;
 I-AV-40         	751.3000    	0.000000    	1               	;
 O-AV-41         	748.0000    	0.000000    	1               	;
 I-AV-42         	744.8000    	0.000000    	1               	;
 O-AV-43         	741.5000    	0.000000    	1               	;
 I-AV-44         	718.5000    	0.000000    	1               	;
 I-AV-45         	1138.5000   	0.000000    	1               	;
 I-AV-46         	728.4000    	0.000000    	1               	;
 I-AV-47         	718.5000    	0.000000    	1               	;
 O-AV-48         	711.9000    	0.000000    	1               	;
 O-AV-49         	666.0000    	0.000000    	1               	;
 I-AV-5          	1148.3000   	0.000000    	1               	;
 O-AV-50         	675.9000    	0.000000    	1               	;
 I-AV-51         	666.0000    	0.000000    	1               	;
 I-AV-52         	672.6000    	0.000000    	1               	;
 I-AV-53         	698.8000    	0.000000    	1               	;
 I-AV-54         	698.8000    	0.000000    	1               	;
 I-AV-55         	698.8000    	0.000000    	1               	;
 I-AV-56         	1138.5000   	0.000000    	1               	;
 I-AV-57         	715.2000    	0.000000    	1               	;
 O-AV-58         	695.5000    	0.000000    	1               	;
 O-AV-59         	679.1000    	0.000000    	1               	;
 I-AV-6          	1148.3000   	0.000000    	1               	;
 I-AV-60         	685.7000    	0.000000    	1               	;
 I-AV-61         	652.9000    	0.000000    	1               	;
 O-AV-62         	666.0000    	0.000000    	1               	;
 I-AV-63         	669.3000    	0.000000    	1               	;
 O-AV-64         	666.0000    	0.000000    	1               	;
 O-AV-65         	748.0000    	0.000000    	1               	;
 O-AV-66         	702.1000    	0.000000    	1               	;
 I-AV-67         	1138.5000   	0.000000    	1               	;
 I-AV-68         	708.7000    	0.000000    	1               	;
 I-AV-69         	702.1000    	0.000000    	1               	;
 O-AV-7          	1151.6000   	0.000000    	1               	;
 O-AV-70         	711.9000    	0.000000    	1               	;
 I-AV-71         	708.7000    	0.000000    	1               	;
 O-AV-72         	679.1000    	0.000000    	1               	;
 O-AV-73         	689.0000    	0.000000    	1               	;
 I-AV-74         	643.0000    	0.000000    	1               	;
 I-AV-75         	629.9000    	0.000000    	1               	;
 I-AV-76         	685.7000    	0.000000    	1               	;
 O-AV-77         	603.7000    	0.000000    	1               	;
 I-AV-78         	1141.7000   	0.000000    	1               	;
 I-AV-79         	600.4000    	0.000000    	1               	;
 I-AV-8          	1122.1000   	0.000000    	1               	;
 I-AV-80         	587.3000    	0.000000    	1               	;
 I-AV-81         	587.3000    	0.000000    	1               	;
 I-AV-82         	593.8000    	0.000000    	1               	;
 I-AV-83         	610.2000    	0.000000    	1               	;
 O-AV-84         	590.6000    	0.000000    	1               	;
 O-AV-85         	603.7000    	0.000000    	1               	;
 O-AV-86         	639.8000    	0.000000    	1               	;
 I-AV-87         	1141.7000   	0.000000    	1               	;
 I-AV-88         	757.9000    	0.000000    	1               	;
 I-AV-89         	597.1000    	0.000000    	1               	;
 I-AV-9          	1122.1000   	0.000000    	1               	;
 O-AV-90         	593.8000    	0.000000    	1               	;
 I-AV-91         	643.0000    	0.000000    	1               	;
 O-AV-92         	636.5000    	0.000000    	1               	;
 I-AV-93         	705.4000    	0.000000    	1               	;
 I-AV-94         	689.0000    	0.000000    	1               	;
 I-AV-95         	718.5000    	0.000000    	1               	;
 I-AV-96         	777.6000    	0.000000    	1               	;
 O-Bartesta_Brancha	1210.6000   	0.000000    	1               	;
 I-Food_World    	1204.1000   	0.000000    	1               	;
 J-1             	1158.1000   	0.600000    	1               	;
 J-10            	1227.0000   	0.900000    	1               	;
 J-100           	1299.2000   	2.100000    	1               	;
 J-101           	1168.0000   	1.700000    	1               	;
 J-102           	1154.9000   	1.700000    	1               	;
 J-103           	1168.0000   	1.100000    	1               	;
 J-104           	1200.8000   	1.100000    	1               	;
 J-105           	1341.9000   	2.500000    	1               	;
 J-106           	1204.1000   	1.400000    	1               	;
 J-107           	1177.8000   	1.300000    	1               	;
 J-108           	1164.7000   	3.200000    	1               	;
 J-109           	1174.5000   	2.400000    	1               	;
 J-11            	1177.8000   	3.000000    	1               	;
 J-110           	1230.3000   	6.400000    	1               	;
 J-111           	1151.6000   	0.200000    	1               	;
 J-112           	1171.3000   	0.800000    	1               	;
 J-113           	1168.0000   	0.400000    	1               	;
 J-114           	1161.4000   	0.300000    	1               	;
 J-115           	1177.8000   	1.300000    	1               	;
 J-116           	1122.1000   	0.900000    	1               	;
 J-117           	1131.9000   	0.600000    	1               	;
 J-118           	1151.6000   	1.900000    	1               	;
 J-119           	1148.3000   	0.300000    	1               	;
 J-12            	1227.0000   	2.900000    	1               	;
 J-120           	1204.1000   	1.400000    	1               	;
 J-121           	1177.8000   	2.000000    	1               	;
 J-122           	1168.0000   	1.600000    	1               	;
 J-123           	1322.2000   	7.700000    	1               	;
 J-124           	1161.4000   	0.200000    	1               	;
 J-125           	1164.7000   	0.300000    	1               	;
 J-126           	1122.1000   	0.500000    	1               	;
 J-127           	1122.1000   	1.100000    	1               	;
 J-128           	1437.0000   	1.800000    	1               	;
 J-129           	1486.2000   	5.200000    	1               	;
 J-13            	1246.7000   	4.200000    	1               	;
 J-130           	1220.5000   	0.500000    	1               	;
 J-131           	1243.4000   	0.300000    	1               	;
 J-132           	1177.8000   	0.900000    	1               	;
 J-133           	1177.8000   	2.000000    	1               	;
 J-134           	1200.8000   	3.200000    	1               	;
 J-135           	1256.6000   	0.500000    	1               	;
 J-136           	1181.1000   	1.100000    	1               	;
 J-137           	1161.4000   	1.700000    	1               	;
 J-138           	1187.7000   	3.200000    	1               	;
 J-139           	1158.1000   	0.900000    	1               	;
 J-14            	1177.8000   	1.300000    	1               	;
 J-140           	1230.3000   	0.500000    	1               	;
 J-141           	1171.3000   	0.100000    	1               	;
 J-142           	1394.4000   	1.400000    	1               	;
 J-143           	1138.5000   	0.600000    	1               	;
 J-144           	1177.8000   	1.600000    	1               	;
 J-145           	1158.1000   	2.000000    	1               	;
 J-146           	1200.8000   	0.400000    	1               	;
 J-147           	1266.4000   	0.400000    	1               	;
 J-148           	1141.7000   	0.600000    	1               	;
 J-149           	1141.7000   	0.900000    	1               	;
 J-15            	1184.4000   	0.900000    	1               	;
 J-150           	1233.6000   	0.700000    	1               	;
 J-151           	1145.0000   	0.600000    	1               	;
 J-152           	1240.2000   	0.600000    	1               	;
 J-153           	1207.3000   	4.500000    	1               	;
 J-154           	1177.8000   	4.100000    	1               	;
 J-155           	1230.3000   	7.500000    	1               	;
 J-156           	1204.1000   	3.100000    	1               	;
 J-157           	1145.0000   	1.200000    	1               	;
 J-158           	1148.3000   	0.600000    	1               	;
 J-159           	1168.0000   	0.500000    	1               	;
 J-16            	1243.4000   	1.300000    	1               	;
 J-160           	1128.6000   	3.400000    	1               	;
 J-161           	1145.0000   	1.000000    	1               	;
 J-162           	1177.8000   	0.700000    	1               	;
 J-163           	1348.4000   	0.300000    	1               	;
 J-164           	689.0000    	0.400000    	1               	;
 J-165           	1256.6000   	1.600000    	1               	;
 J-166           	1348.4000   	1.600000    	1               	;
 J-167           	1168.0000   	0.900000    	1               	;
 J-168           	1348.4000   	0.200000    	1               	;
 J-169           	689.0000    	0.000000    	1               	;
 J-17            	1256.6000   	1.700000    	1               	;
 J-170           	1177.8000   	0.000000    	1               	;
 J-171           	1177.8000   	0.000000    	1               	;
 J-172           	1141.7000   	0.100000    	1               	;
 J-173           	1138.5000   	0.900000    	1               	;
 J-174           	1151.6000   	2.600000    	1               	;
 J-175           	1161.4000   	4.100000    	1               	;
 J-176           	1187.7000   	3.700000    	1               	;
 J-177           	1240.2000   	3.500000    	1               	;
 J-178           	1141.7000   	0.100000    	1               	;
 J-179           	1227.0000   	0.600000    	1               	;
 J-18            	1204.1000   	2.200000    	1               	;
 J-180           	1145.0000   	0.500000    	1               	;
 J-181           	1164.7000   	0.200000    	1               	;
 J-182           	1145.0000   	0.600000    	1               	;
 J-183           	1115.5000   	1.100000    	1               	;
 J-184           	1151.6000   	0.800000    	1               	;
 J-185           	1171.3000   	1.900000    	1               	;
 J-186           	1158.1000   	0.700000    	1               	;
 J-187           	1138.5000   	0.900000    	1               	;
 J-188           	1154.9000   	0.600000    	1               	;
 J-189           	1322.2000   	1.700000    	1               	;
 J-19            	1190.9000   	1.300000    	1               	;
 J-191           	1335.3000   	1.800000    	1               	;
 J-192           	1148.3000   	1.000000    	1               	;
 J-193           	1131.9000   	1.600000    	1               	;
 J-194           	1138.5000   	0.600000    	1               	;
 J-195           	1168.0000   	0.700000    	1               	;
 J-196           	1135.2000   	0.500000    	1               	;
 J-197           	1230.3000   	0.500000    	1               	;
 J-198           	1207.3000   	0.600000    	1               	;
 J-199           	1200.8000   	0.600000    	1               	;
 J-2             	1204.1000   	1.500000    	1               	;
 J-20            	1141.7000   	0.600000    	1               	;
 J-200           	1161.4000   	0.300000    	1               	;
 J-201           	1181.1000   	0.300000    	1               	;
 J-202           	1161.4000   	0.600000    	1               	;
 J-203           	1187.7000   	0.600000    	1               	;
 J-204           	1164.7000   	3.500000    	1               	;
 J-205           	1181.1000   	0.700000    	1               	;
 J-206           	1131.9000   	0.500000    	1               	;
 J-207           	1138.5000   	0.200000    	1               	;
 J-208           	1151.6000   	0.200000    	1               	;
 J-209           	1345.1000   	0.500000    	1               	;
 J-21            	1148.3000   	0.700000    	1               	;
 J-210           	1148.3000   	0.600000    	1               	;
 J-211           	1141.7000   	0.400000    	1               	;
 J-212           	1158.1000   	0.200000    	1               	;
 J-213           	1181.1000   	1.600000    	1               	;
 J-214           	1187.7000   	1.000000    	1               	;
 J-215           	1197.5000   	0.500000    	1               	;
 J-216           	1190.9000   	0.600000    	1               	;
 J-217           	1213.9000   	0.600000    	1               	;
 J-218           	1158.1000   	0.900000    	1               	;
 J-219           	1151.6000   	1.000000    	1               	;
 J-22            	1194.2000   	0.500000    	1               	;
 J-220           	1154.9000   	0.500000    	1               	;
 J-221           	1151.6000   	0.300000    	1               	;
 J-222           	1177.8000   	0.600000    	1               	;
 J-223           	1158.1000   	0.600000    	1               	;
 J-224           	1204.1000   	1.100000    	1               	;
 J-225           	1171.3000   	0.600000    	1               	;
 J-226           	1184.4000   	0.600000    	1               	;
 J-227           	1289.4000   	1.600000    	1               	;
 J-228           	1184.4000   	1.400000    	1               	;
 J-229           	1138.5000   	5.100000    	1               	;
 J-23            	1151.6000   	0.600000    	1               	;
 J-230           	1122.1000   	5.100000    	1               	;
 J-231           	1164.7000   	0.600000    	1               	;
 J-232           	1145.0000   	0.100000    	1               	;
 J-233           	1154.9000   	1.100000    	1               	;
 J-234           	1151.6000   	0.600000    	1               	;
 J-235           	1148.3000   	1.600000    	1               	;
 J-236           	1154.9000   	0.100000    	1               	;
 J-237           	1164.7000   	0.200000    	1               	;
 J-238           	1154.9000   	0.200000    	1               	;
 J-239           	1184.4000   	0.900000    	1               	;
 J-24            	1158.1000   	0.400000    	1               	;
 J-240           	1168.0000   	1.000000    	1               	;
 J-241           	1164.7000   	0.100000    	1               	;
 J-242           	1145.0000   	0.200000    	1               	;
 J-243           	1151.6000   	0.200000    	1               	;
 J-244           	1154.9000   	0.000000    	1               	;
 J-245           	1154.9000   	0.000000    	1               	;
 J-246           	1164.7000   	0.300000    	1               	;
 J-247           	1177.8000   	0.300000    	1               	;
 J-248           	1154.9000   	0.000000    	1               	;
 J-249           	1154.9000   	0.000000    	1               	;
 J-25            	1161.4000   	1.000000    	1               	;
 J-250           	1361.6000   	0.200000    	1               	;
 J-251           	1259.8000   	0.500000    	1               	;
 J-252           	1328.7000   	0.500000    	1               	;
 J-253           	1269.7000   	0.600000    	1               	;
 J-254           	1358.3000   	0.400000    	1               	;
 J-255           	1253.3000   	0.200000    	1               	;
 J-256           	1273.0000   	0.100000    	1               	;
 J-257           	761.2000    	0.000000    	1               	;
 J-258           	1371.4000   	1.000000    	1               	;
 J-259           	1194.2000   	1.100000    	1               	;
 J-26            	1177.8000   	1.100000    	1               	;
 J-260           	1131.9000   	0.500000    	1               	;
 J-261           	1322.2000   	1.900000    	1               	;
 J-262           	1187.7000   	5.800000    	1               	;
 J-263           	1168.0000   	0.700000    	1               	;
 J-264           	1158.1000   	0.100000    	1               	;
 J-265           	1145.0000   	0.200000    	1               	;
 J-266           	1145.0000   	0.400000    	1               	;
 J-267           	1168.0000   	0.000000    	1               	;
 J-268           	1177.8000   	0.000000    	1               	;
 J-269           	1177.8000   	0.000000    	1               	;
 J-27            	1204.1000   	1.800000    	1               	;
 J-270           	1177.8000   	0.000000    	1               	;
 J-271           	1177.8000   	0.000000    	1               	;
 J-272           	1177.8000   	0.000000    	1               	;
 J-273           	1148.3000   	0.200000    	1               	;
 J-274           	1197.5000   	1.000000    	1               	;
 J-275           	1190.9000   	0.000000    	1               	;
 J-276           	1236.9000   	0.500000    	1               	;
 J-277           	1227.0000   	0.900000    	1               	;
 J-278           	1204.1000   	0.900000    	1               	;
 J-279           	1256.6000   	0.000000    	1               	;
 J-28            	1154.9000   	0.700000    	1               	;
 J-280           	1168.0000   	0.000000    	1               	;
 J-281           	1158.1000   	0.200000    	1               	;
 J-282           	1158.1000   	0.000000    	1               	;
 J-283           	1204.1000   	0.000000    	1               	;
 J-284           	1394.4000   	1.700000    	1               	;
 J-285           	1433.7000   	1.600000    	1               	;
 J-286           	1433.7000   	1.300000    	1               	;
 J-287           	1437.0000   	1.300000    	1               	;
 J-288           	1197.5000   	1.300000    	1               	;
 J-289           	1204.1000   	0.300000    	1               	;
 J-29            	1168.0000   	0.400000    	1               	;
 J-290           	1204.1000   	0.000000    	1               	;
 J-291           	1204.1000   	0.000000    	1               	;
 J-292           	1204.1000   	0.000000    	1               	;
 J-293           	1204.1000   	0.000000    	1               	;
 J-294           	1204.1000   	0.000000    	1               	;
 J-295           	1194.2000   	0.800000    	1               	;
 J-296           	1204.1000   	1.300000    	1               	;
 J-297           	1194.2000   	0.400000    	1               	;
 J-298           	1190.9000   	0.600000    	1               	;
 J-299           	1318.9000   	0.200000    	1               	;
 J-3             	1243.4000   	0.600000    	1               	;
 J-30            	1210.6000   	0.300000    	1               	;
 J-300           	1213.9000   	0.300000    	1               	;
 J-301           	1138.5000   	0.000000    	1               	;
 J-302           	1158.1000   	2.300000    	1               	;
 J-303           	1148.3000   	6.100000    	1               	;
 J-304           	1135.2000   	5.200000    	1               	;
 J-305           	1158.1000   	4.100000    	1               	;
 J-306           	1141.7000   	3.700000    	1               	;
 J-307           	1168.0000   	2.400000    	1               	;
 J-308           	1138.5000   	0.000000    	1               	;
 J-309           	1253.3000   	0.000000    	1               	;
 J-31            	1505.9000   	1.200000    	1               	;
 J-310           	1240.2000   	0.400000    	1               	;
 J-311           	1227.0000   	0.300000    	1               	;
 J-312           	1141.7000   	0.100000    	1               	;
 J-313           	1263.1000   	1.900000    	1               	;
 J-315           	1204.1000   	0.000000    	1               	;
 J-316           	1204.1000   	0.000000    	1               	;
 J-317           	666.0000    	0.200000    	1               	;
 J-318           	1473.1000   	0.100000    	1               	;
 J-319           	1482.9000   	0.000000    	1               	;
 J-32            	1368.1000   	1.500000    	1               	;
 J-320           	1473.1000   	0.000000    	1               	;
 J-321           	1505.9000   	0.000000    	1               	;
 J-322           	1181.1000   	0.100000    	1               	;
 J-323           	1168.0000   	0.400000    	1               	;
 J-324           	1184.4000   	0.200000    	1               	;
 J-325           	1184.4000   	0.100000    	1               	;
 J-326           	1184.4000   	0.100000    	1               	;
 J-327           	1345.1000   	0.700000    	1               	;
 J-328           	1174.5000   	0.300000    	1               	;
 J-329           	1164.7000   	0.000000    	1               	;
 J-33            	1151.6000   	1.800000    	1               	;
 J-330           	1138.5000   	0.300000    	1               	;
 J-331           	1148.3000   	0.400000    	1               	;
 J-332           	1154.9000   	0.200000    	1               	;
 J-333           	731.6000    	0.600000    	1               	;
 J-334           	702.1000    	0.400000    	1               	;
 J-335           	1151.6000   	1.900000    	1               	;
 J-336           	1197.5000   	0.700000    	1               	;
 J-337           	1184.4000   	0.100000    	1               	;
 J-338           	1246.7000   	1.400000    	1               	;
 J-339           	1161.4000   	1.000000    	1               	;
 J-34            	1151.6000   	2.000000    	1               	;
 J-340           	1194.2000   	0.300000    	1               	;
 J-341           	1194.2000   	0.100000    	1               	;
 J-342           	1184.4000   	0.400000    	1               	;
 J-343           	1177.8000   	2.000000    	1               	;
 J-344           	1164.7000   	1.000000    	1               	;
 J-345           	1164.7000   	1.000000    	1               	;
 J-346           	1138.5000   	0.600000    	1               	;
 J-347           	1135.2000   	0.200000    	1               	;
 J-348           	1138.5000   	0.300000    	1               	;
 J-349           	1168.0000   	0.200000    	1               	;
 J-35            	1220.5000   	0.800000    	1               	;
 J-350           	1164.7000   	1.400000    	1               	;
 J-351           	1233.6000   	2.100000    	1               	;
 J-352           	1158.1000   	0.400000    	1               	;
 J-353           	1148.3000   	0.700000    	1               	;
 J-354           	1171.3000   	0.200000    	1               	;
 J-355           	721.8000    	1.200000    	1               	;
 J-356           	1138.5000   	0.300000    	1               	;
 J-357           	1138.5000   	0.300000    	1               	;
 J-358           	1125.3000   	0.200000    	1               	;
 J-359           	1164.7000   	0.700000    	1               	;
 J-36            	1197.5000   	0.900000    	1               	;
 J-360           	1154.9000   	0.900000    	1               	;
 J-361           	1154.9000   	0.300000    	1               	;
 J-362           	1154.9000   	0.500000    	1               	;
 J-363           	1168.0000   	0.400000    	1               	;
 J-364           	1161.4000   	0.100000    	1               	;
 J-365           	1151.6000   	0.100000    	1               	;
 J-366           	1141.7000   	0.100000    	1               	;
 J-367           	1128.6000   	0.300000    	1               	;
 J-368           	1305.8000   	1.500000    	1               	;
 J-369           	1443.6000   	2.100000    	1               	;
 J-37            	1161.4000   	2.300000    	1               	;
 J-370           	1391.1000   	1.500000    	1               	;
 J-371           	941.6000    	0.400000    	1               	;
 J-372           	1174.5000   	0.100000    	1               	;
 J-373           	1158.1000   	0.100000    	1               	;
 J-374           	1351.7000   	1.300000    	1               	;
 J-375           	1253.3000   	0.000000    	1               	;
 J-376           	1299.2000   	0.200000    	1               	;
 J-377           	1177.8000   	1.200000    	1               	;
 J-378           	1151.6000   	0.000000    	1               	;
 J-379           	1151.6000   	0.000000    	1               	;
 J-38            	1148.3000   	0.500000    	1               	;
 J-380           	1151.6000   	0.100000    	1               	;
 J-381           	1190.9000   	0.100000    	1               	;
 J-382           	1158.1000   	0.800000    	1               	;
 J-383           	1151.6000   	1.400000    	1               	;
 J-384           	938.3000    	0.000000    	1               	;
 J-385           	1295.9000   	0.900000    	1               	;
 J-386           	738.2000    	0.200000    	1               	;
 J-387           	1148.3000   	2.000000    	1               	;
 J-388           	761.2000    	0.300000    	1               	;
 J-389           	1168.0000   	0.000000    	1               	;
 J-39            	1154.9000   	0.300000    	1               	;
 J-4             	1269.7000   	0.100000    	1               	;
 J-40            	1276.3000   	1.400000    	1               	;
 J-41            	1190.9000   	0.500000    	1               	;
 J-42            	1217.2000   	1.100000    	1               	;
 J-43            	1263.1000   	3.400000    	1               	;
 J-44            	1164.7000   	0.200000    	1               	;
 J-45            	1236.9000   	0.800000    	1               	;
 J-46            	1148.3000   	6.000000    	1               	;
 J-47            	1168.0000   	0.800000    	1               	;
 J-48            	1122.1000   	0.400000    	1               	;
 J-49            	1181.1000   	2.100000    	1               	;
 J-5             	1295.9000   	0.700000    	1               	;
 J-50            	1227.0000   	3.000000    	1               	;
 J-51            	1266.4000   	0.200000    	1               	;
 J-52            	1177.8000   	0.800000    	1               	;
 J-53            	1230.3000   	0.500000    	1               	;
 J-54            	1217.2000   	0.400000    	1               	;
 J-55            	1210.6000   	0.100000    	1               	;
 J-56            	1161.4000   	1.200000    	1               	;
 J-57            	1118.8000   	0.500000    	1               	;
 J-58            	1151.6000   	0.900000    	1               	;
 J-59            	1197.5000   	4.600000    	1               	;
 J-6             	1250.0000   	0.700000    	1               	;
 J-60            	1233.6000   	1.000000    	1               	;
 J-61            	1154.9000   	3.200000    	1               	;
 J-62            	1148.3000   	0.300000    	1               	;
 J-63            	1302.5000   	5.200000    	1               	;
 J-64            	1138.5000   	0.700000    	1               	;
 J-65            	1151.6000   	0.700000    	1               	;
 J-66            	1164.7000   	0.500000    	1               	;
 J-67            	1151.6000   	0.600000    	1               	;
 J-68            	1161.4000   	0.400000    	1               	;
 J-69            	1151.6000   	2.500000    	1               	;
 J-7             	1200.8000   	1.300000    	1               	;
 J-70            	1141.7000   	0.700000    	1               	;
 J-71            	1141.7000   	0.300000    	1               	;
 J-72            	1148.3000   	0.300000    	1               	;
 J-73            	1302.5000   	2.100000    	1               	;
 J-74            	1253.3000   	1.000000    	1               	;
 J-75            	1312.3000   	0.600000    	1               	;
 J-76            	1263.1000   	2.000000    	1               	;
 J-77            	1332.0000   	2.000000    	1               	;
 J-78            	1161.4000   	0.900000    	1               	;
 J-79            	1151.6000   	0.500000    	1               	;
 J-8             	1282.8000   	0.800000    	1               	;
 J-80            	1164.7000   	0.500000    	1               	;
 J-81            	1177.8000   	0.300000    	1               	;
 J-82            	1207.3000   	3.300000    	1               	;
 J-83            	1174.5000   	1.600000    	1               	;
 J-84            	1177.8000   	0.700000    	1               	;
 J-85            	1423.9000   	12.600000   	1               	;
 J-86            	1509.2000   	5.900000    	1               	;
 J-87            	1230.3000   	1.200000    	1               	;
 J-88            	1217.2000   	1.200000    	1               	;
 J-89            	1236.9000   	1.200000    	1               	;
 J-9             	1220.5000   	1.100000    	1               	;
 J-90            	1145.0000   	1.700000    	1               	;
 J-91            	1148.3000   	0.800000    	1               	;
 J-92            	1194.2000   	0.500000    	1               	;
 J-93            	1227.0000   	6.800000    	1               	;
 J-94            	1151.6000   	0.200000    	1               	;
 J-95            	1168.0000   	0.200000    	1               	;
 J-96            	1210.6000   	8.100000    	1               	;
 J-97            	1210.6000   	3.900000    	1               	;
 J-98            	1305.8000   	5.300000    	1               	;
 J-99            	1194.2000   	2.900000    	1               	;
 O-Pump-1        	702.1000    	0.000000    	1               	;
 I-931_South     	1345.1000   	0.000000    	1               	;
 O-AV-1          	1440.3000   	0.000000    	1               	;
 I-AV-10         	1131.9000   	0.000000    	1               	;
 O-AV-11         	1138.5000   	0.000000    	1               	;
 O-AV-12         	1463.3000   	0.000000    	1               	;
 O-AV-13         	1148.3000   	0.000000    	1               	;
 O-AV-14         	1141.7000   	0.000000    	1               	;
 O-AV-15         	1135.2000   	0.000000    	1               	;
 I-AV-16         	1141.7000   	0.000000    	1               	;
 O-AV-17         	1138.5000   	0.000000    	1               	;
 O-AV-18         	1161.4000   	0.000000    	1               	;
 I-AV-19         	1138.5000   	0.000000    	1               	;
 O-AV-2          	1145.0000   	0.000000    	1               	;
 O-AV-20         	1138.5000   	0.000000    	1               	;
 O-AV-21         	1138.5000   	0.000000    	1               	;
 I-AV-22         	1151.6000   	0.000000    	1               	;
 O-AV-23         	1417.3000   	0.000000    	1               	;
 I-AV-24         	1151.6000   	0.000000    	1               	;
 I-AV-25         	1213.9000   	0.000000    	1               	;
 O-AV-26         	1184.4000   	0.000000    	1               	;
 O-AV-27         	1184.4000   	0.000000    	1               	;
 O-AV-28         	1145.0000   	0.000000    	1               	;
 I-AV-29         	1145.0000   	0.000000    	1               	;
 O-AV-3          	1204.1000   	0.000000    	1               	;
 I-AV-30         	1148.3000   	0.000000    	1               	;
 O-AV-31         	1263.1000   	0.000000    	1               	;
 I-AV-32         	1200.8000   	0.000000    	1               	;
 O-AV-33         	679.1000    	0.000000    	1               	;
 O-AV-34         	1122.1000   	0.000000    	1               	;
 I-AV-35         	839.9000    	0.000000    	1               	;
 I-AV-36         	820.2000    	0.000000    	1               	;
 I-AV-37         	702.1000    	0.000000    	1               	;
 I-AV-38         	876.0000    	0.000000    	1               	;
 O-AV-39         	761.2000    	0.000000    	1               	;
 O-AV-4          	1151.6000   	0.000000    	1               	;
 O-AV-40         	751.3000    	0.000000    	1               	;
 I-AV-41         	748.0000    	0.000000    	1               	;
 O-AV-42         	744.8000    	0.000000    	1               	;
 I-AV-43         	741.5000    	0.000000    	1               	;
 O-AV-44         	718.5000    	0.000000    	1               	;
 O-AV-45         	1138.5000   	0.000000    	1               	;
 O-AV-46         	728.4000    	0.000000    	1               	;
 O-AV-47         	718.5000    	0.000000    	1               	;
 I-AV-48         	711.9000    	0.000000    	1               	;
 I-AV-49         	666.0000    	0.000000    	1               	;
 O-AV-5          	1148.3000   	0.000000    	1               	;
 I-AV-50         	675.9000    	0.000000    	1               	;
 O-AV-51         	666.0000    	0.000000    	1               	;
 O-AV-52         	672.6000    	0.000000    	1               	;
 O-AV-53         	698.8000    	0.000000    	1               	;
 O-AV-54         	698.8000    	0.000000    	1               	;
 O-AV-55         	698.8000    	0.000000    	1               	;
 O-AV-56         	1138.5000   	0.000000    	1               	;
 O-AV-57         	715.2000    	0.000000    	1               	;
 I-AV-58         	695.5000    	0.000000    	1               	;
 I-AV-59         	679.1000    	0.000000    	1               	;
 O-AV-6          	1148.3000   	0.000000    	1               	;
 O-AV-60         	685.7000    	0.000000    	1               	;
 O-AV-61         	652.9000    	0.000000    	1               	;
 I-AV-62         	666.0000    	0.000000    	1               	;
 O-AV-63         	669.3000    	0.000000    	1               	;
 I-AV-64         	666.0000    	0.000000    	1               	;
 I-AV-65         	748.0000    	0.000000    	1               	;
 I-AV-66         	702.1000    	0.000000    	1               	;
 O-AV-67         	1138.5000   	0.000000    	1               	;
 O-AV-68         	708.7000    	0.000000    	1               	;
 O-AV-69         	702.1000    	0.000000    	1               	;
 I-AV-7          	1151.6000   	0.000000    	1               	;
 I-AV-70         	711.9000    	0.000000    	1               	;
 O-AV-71         	708.7000    	0.000000    	1               	;
 I-AV-72         	679.1000    	0.000000    	1               	;
 I-AV-73         	689.0000    	0.000000    	1               	;
 O-AV-74         	643.0000    	0.000000    	1               	;
 O-AV-75         	629.9000    	0.000000    	1               	;
 O-AV-76         	685.7000    	0.000000    	1               	;
 I-AV-77         	603.7000    	0.000000    	1               	;
 O-AV-78         	1141.7000   	0.000000    	1               	;
 O-AV-79         	600.4000    	0.000000    	1               	;
 O-AV-8          	1122.1000   	0.000000    	1               	;
 O-AV-80         	587.3000    	0.000000    	1               	;
 O-AV-81         	587.3000    	0.000000    	1               	;
 O-AV-82         	593.8000    	0.000000    	1               	;
 O-AV-83         	610.2000    	0.000000    	1               	;
 I-AV-84         	590.6000    	0.000000    	1               	;
 I-AV-85         	603.7000    	0.000000    	1               	;
 I-AV-86         	639.8000    	0.000000    	1               	;
 O-AV-87         	1141.7000   	0.000000    	1               	;
 O-AV-88         	757.9000    	0.000000    	1               	;
 O-AV-89         	597.1000    	0.000000    	1               	;
 O-AV-9          	1122.1000   	0.000000    	1               	;
 I-AV-90         	593.8000    	0.000000    	1               	;
 O-AV-91         	643.0000    	0.000000    	1               	;
 I-AV-92         	636.5000    	0.000000    	1               	;
 O-AV-93         	705.4000    	0.000000    	1               	;
 O-AV-94         	689.0000    	0.000000    	1               	;
 O-AV-95         	718.5000    	0.000000    	1               	;
 O-AV-96         	777.6000    	0.000000    	1               	;
 I-Bartesta_Brancha	1210.6000   	0.000000    	1               	;
 O-Food_World    	1204.1000   	0.000000    	1               	;
 I-Pump-1        	702.1000    	0.000000    	1               	;

[RESERVOIRS]
;ID              	Head        	Pattern         
 R-1             	1450.0000   	                	;

[TANKS]
;ID              	Elevation   	InitLevel   	MinLevel    	MaxLevel    	Diameter    	MinVol      	VolCurve
 1               	1680.0000   	1800.0000   	1680.0000   	1800.0000   	50.0000     	3298672.2867	                	;
 2               	1460.0000   	1470.0000   	1460.0000   	1500.0000   	50.0000     	2866703.2968	                	;
 3               	1170.0000   	1190.0000   	1170.0000   	1190.0000   	50.0000     	2297289.6282	                	;
 4               	1400.0000   	1425.0000   	1400.0000   	1425.0000   	50.0000     	2748893.5723	                	;
 5               	1530.0000   	1620.0000   	1530.0000   	1620.0000   	45.0000     	2433359.8601	                	;
 6               	1445.0000   	1490.0000   	1445.0000   	1490.0000   	50.0000     	2837250.8656	                	;
 7               	1348.0000   	1363.0000   	1348.0000   	1363.0000   	50.0000     	2646791.8110	                	;

[PIPES]
;ID              	Node1           	Node2           	Length      	Diameter    	Roughness   	MinorLoss   	Status
 P-1             	J-1             	J-2             	375.1190    	6.0000      	140.0000    	0.0000      	Open  	;
 P-10            	J-18            	J-19            	946.2990    	6.0000      	149.0000    	0.0000      	Open  	;
 P-100           	J-155           	I-AV-86         	1348.6300   	6.0000      	149.0000    	0.0000      	Open  	;
 P-101           	J-157           	J-158           	205.0590    	6.0000      	149.0000    	0.0000      	Open  	;
 P-102           	J-59            	J-153           	319.9800    	6.0000      	149.0000    	0.0000      	Open  	;
 P-103           	J-159           	I-AV-64         	14.6090     	6.0000      	140.0000    	0.0000      	Open  	;
 P-104           	J-160           	J-161           	243.5390    	6.0000      	149.0000    	0.0000      	Open  	;
 P-105           	J-2             	J-333           	192.1190    	6.0000      	140.0000    	0.0000      	Open  	;
 P-106           	J-29            	J-52            	190.4290    	6.0000      	140.0000    	0.0000      	Open  	;
 P-107           	J-163           	I-AV-71         	14.5600     	6.0000      	149.0000    	0.0000      	Open  	;
 P-109           	J-165           	J-166           	656.5000    	6.0000      	149.0000    	0.0000      	Open  	;
 P-11            	J-20            	I-AV-87         	9.0200      	6.0000      	149.0000    	0.0000      	Open  	;
 P-110           	J-2             	I-AV-66         	809.5000    	6.0000      	140.0000    	0.0000      	Open  	;
 P-112           	J-170           	I-AV-69         	31.6000     	6.0000      	140.0000    	0.0000      	Open  	;
 P-113           	J-172           	I-AV-78         	4.1590      	6.0000      	149.0000    	0.0000      	Open  	;
 P-114           	J-174           	J-175           	1993.4200   	6.0000      	149.0000    	0.0000      	Open  	;
 P-115           	J-176           	J-177           	2276.9690   	6.0000      	149.0000    	0.0000      	Open  	;
 P-116           	J-161           	I-AV-2          	5.5190      	6.0000      	149.0000    	0.0000      	Open  	;
 P-117           	J-139           	J-70            	509.5890    	6.0000      	140.0000    	0.0000      	Open  	;
 P-118           	J-10            	J-179           	424.0290    	6.0000      	149.0000    	0.0000      	Open  	;
 P-119           	J-180           	I-AV-29         	100.4100    	6.0000      	140.0000    	0.0000      	Open  	;
 P-12            	J-22            	J-23            	408.6490    	6.0000      	140.0000    	0.0000      	Open  	;
 P-120           	J-181           	J-386           	120.0100    	6.0000      	140.0000    	0.0000      	Open  	;
 P-121           	J-182           	J-72            	80.7090     	6.0000      	140.0000    	0.0000      	Open  	;
 P-122           	J-183           	J-157           	333.4200    	6.0000      	149.0000    	0.0000      	Open  	;
 P-123           	J-184           	I-AV-4          	26.5000     	6.0000      	149.0000    	0.0000      	Open  	;
 P-124           	J-17            	J-73            	507.3900    	6.0000      	149.0000    	0.0000      	Open  	;
 P-125           	J-185           	J-80            	161.1690    	6.0000      	149.0000    	0.0000      	Open  	;
 P-126           	J-186           	J-145           	44.9190     	6.0000      	140.0000    	0.0000      	Open  	;
 P-127           	J-37            	J-159           	313.5790    	6.0000      	140.0000    	0.0000      	Open  	;
 P-128           	J-187           	I-AV-20         	5.2390      	6.0000      	140.0000    	0.0000      	Open  	;
 P-129           	J-145           	J-33            	1104.7600   	6.0000      	140.0000    	0.0000      	Open  	;
 P-13            	J-24            	I-AV-61         	213.9790    	6.0000      	140.0000    	0.0000      	Open  	;
 P-130           	I-Pump-1        	R-1             	12.5790     	6.0000      	140.0000    	0.0000      	Open  	;
 P-131           	J-191           	J-49            	1498.4200   	6.0000      	149.0000    	0.0000      	Open  	;
 P-132           	J-192           	J-193           	497.1600    	6.0000      	149.0000    	0.0000      	Open  	;
 P-133           	J-194           	I-AV-19         	4.8400      	6.0000      	140.0000    	0.0000      	Open  	;
 P-134           	J-74            	J-165           	82.1800     	6.0000      	149.0000    	0.0000      	Open  	;
 P-135           	J-196           	J-197           	465.7900    	6.0000      	149.0000    	0.0000      	Open  	;
 P-136           	J-1             	I-AV-63         	82.1900     	6.0000      	140.0000    	0.0000      	Open  	;
 P-137           	J-198           	J-199           	319.7500    	6.0000      	140.0000    	0.0000      	Open  	;
 P-138           	J-200           	I-AV-18         	28.5000     	6.0000      	140.0000    	0.0000      	Open  	;
 P-139           	J-186           	J-202           	537.7990    	6.0000      	140.0000    	0.0000      	Open  	;
 P-14            	J-26            	J-27            	493.7200    	6.0000      	140.0000    	0.0000      	Open  	;
 P-140           	J-161           	J-203           	440.5000    	6.0000      	149.0000    	0.0000      	Open  	;
 P-141           	J-57            	J-204           	365.0790    	6.0000      	149.0000    	0.0000      	Open  	;
 P-142           	J-204           	J-160           	2590.8400   	6.0000      	149.0000    	0.0000      	Open  	;
 P-143           	J-193           	J-157           	340.6300    	6.0000      	149.0000    	0.0000      	Open  	;
 P-144           	J-122           	J-205           	279.0590    	6.0000      	149.0000    	0.0000      	Open  	;
 P-145           	J-206           	J-158           	214.0800    	6.0000      	149.0000    	0.0000      	Open  	;
 P-146           	J-207           	I-AV-41         	149.1190    	6.0000      	140.0000    	0.0000      	Open  	;
 P-147           	J-209           	O-931_South     	159.8300    	6.0000      	149.0000    	0.0000      	Open  	;
 P-148           	J-127           	I-AV-5          	329.7900    	6.0000      	149.0000    	0.0000      	Open  	;
 P-149           	J-211           	I-AV-28         	15.6490     	6.0000      	140.0000    	0.0000      	Open  	;
 P-15            	J-28            	J-29            	169.7200    	6.0000      	140.0000    	0.0000      	Open  	;
 P-150           	J-125           	J-212           	170.4700    	6.0000      	149.0000    	0.0000      	Open  	;
 P-151           	J-213           	J-132           	794.6500    	6.0000      	149.0000    	0.0000      	Open  	;
 P-152           	J-214           	J-215           	395.4500    	6.0000      	149.0000    	0.0000      	Open  	;
 P-153           	J-216           	I-AV-25         	459.2690    	6.0000      	140.0000    	0.0000      	Open  	;
 P-154           	J-218           	J-219           	354.3500    	4.0000      	140.0000    	0.0000      	Open  	;
 P-155           	J-220           	J-221           	197.5390    	4.0000      	140.0000    	0.0000      	Open  	;
 P-156           	J-222           	J-144           	325.2690    	4.0000      	140.0000    	0.0000      	Open  	;
 P-157           	J-182           	I-AV-59         	57.2090     	4.0000      	140.0000    	0.0000      	Open  	;
 P-158           	J-185           	I-AV-3          	620.3300    	4.0000      	149.0000    	0.0000      	Open  	;
 P-159           	J-225           	J-355           	347.3200    	4.0000      	140.0000    	0.0000      	Open  	;
 P-16            	J-27            	J-30            	225.3090    	6.0000      	140.0000    	0.0000      	Open  	;
 P-160           	J-89            	J-227           	501.9200    	4.0000      	149.0000    	0.0000      	Open  	;
 P-161           	J-223           	J-334           	112.8790    	4.0000      	140.0000    	0.0000      	Open  	;
 P-162           	J-90            	J-228           	383.2500    	4.0000      	149.0000    	0.0000      	Open  	;
 P-163           	J-229           	I-AV-67         	3.0390      	4.0000      	149.0000    	0.0000      	Open  	;
 P-164           	J-108           	J-231           	323.7900    	4.0000      	140.0000    	0.0000      	Open  	;
 P-165           	J-232           	J-90            	81.3600     	4.0000      	149.0000    	0.0000      	Open  	;
 P-166           	J-56            	J-218           	178.0890    	4.0000      	140.0000    	0.0000      	Open  	;
 P-167           	J-233           	J-234           	134.5000    	4.0000      	140.0000    	0.0000      	Open  	;
 P-168           	J-69            	J-235           	1029.0000   	4.0000      	140.0000    	0.0000      	Open  	;
 P-169           	J-25            	J-233           	431.3900    	4.0000      	140.0000    	0.0000      	Open  	;
 P-17            	J-31            	I-AV-83         	754.8900    	10.0000     	150.0000    	0.0000      	Open  	;
 P-170           	J-188           	J-236           	47.4590     	6.0000      	140.0000    	0.0000      	Open  	;
 P-171           	J-156           	J-155           	1754.4000   	6.0000      	149.0000    	0.0000      	Open  	;
 P-172           	J-237           	I-AV-53         	43.6190     	6.0000      	140.0000    	0.0000      	Open  	;
 P-173           	J-239           	J-240           	394.4500    	6.0000      	140.0000    	0.0000      	Open  	;
 P-174           	J-222           	I-AV-55         	11.8900     	6.0000      	140.0000    	0.0000      	Open  	;
 P-175           	J-238           	J-151           	111.7600    	6.0000      	140.0000    	0.0000      	Open  	;
 P-176           	J-231           	I-AV-54         	7.6500      	6.0000      	140.0000    	0.0000      	Open  	;
 P-177           	J-242           	J-243           	191.2790    	6.0000      	140.0000    	0.0000      	Open  	;
 P-178           	J-244           	J-245           	37.6500     	6.0000      	140.0000    	0.0000      	Open  	;
 P-179           	J-246           	J-247           	273.5490    	6.0000      	140.0000    	0.0000      	Open  	;
 P-18            	J-33            	I-AV-48         	118.0890    	8.0000      	140.0000    	0.0000      	Open  	;
 P-180           	J-245           	J-248           	161.5090    	6.0000      	140.0000    	0.0000      	Open  	;
 P-181           	J-245           	J-249           	104.8700    	6.0000      	140.0000    	0.0000      	Open  	;
 P-182           	J-166           	J-163           	91.0100     	6.0000      	149.0000    	0.0000      	Open  	;
 P-183           	J-250           	I-AV-81         	25.9590     	10.0000     	150.0000    	0.0000      	Open  	;
 P-184           	J-252           	J-253           	427.8290    	10.0000     	150.0000    	0.0000      	Open  	;
 P-185           	J-254           	J-252           	336.4400    	10.0000     	150.0000    	0.0000      	Open  	;
 P-186           	J-251           	J-255           	286.1300    	10.0000     	150.0000    	0.0000      	Open  	;
 P-187           	J-256           	J-251           	201.3090    	10.0000     	150.0000    	0.0000      	Open  	;
 P-188           	J-250           	J-258           	39.4700     	10.0000     	150.0000    	0.0000      	Open  	;
 P-189           	J-258           	J-259           	794.0490    	10.0000     	150.0000    	0.0000      	Open  	;
 P-19            	J-34            	J-35            	744.0100    	8.0000      	150.0000    	0.0000      	Open  	;
 P-190           	J-260           	J-206           	152.1190    	6.0000      	149.0000    	0.0000      	Open  	;
 P-191           	J-48            	I-AV-34         	31.7900     	6.0000      	149.0000    	0.0000      	Open  	;
 P-192           	J-127           	J-260           	259.2500    	6.0000      	149.0000    	0.0000      	Open  	;
 P-193           	J-116           	J-58            	593.5700    	8.0000      	150.0000    	0.0000      	Open  	;
 P-194           	J-263           	J-264           	66.7200     	4.0000      	149.0000    	0.0000      	Open  	;
 P-195           	J-228           	J-263           	279.6090    	4.0000      	149.0000    	0.0000      	Open  	;
 P-196           	J-119           	J-64            	196.8800    	8.0000      	140.0000    	0.0000      	Open  	;
 P-197           	J-265           	J-266           	125.7300    	6.0000      	149.0000    	0.0000      	Open  	;
 P-198           	J-267           	J-268           	7.9490      	6.0000      	140.0000    	0.0000      	Open  	;
 P-199           	J-268           	J-269           	9.5390      	6.0000      	140.0000    	0.0000      	Open  	;
 P-2             	J-3             	J-4             	74.0590     	6.0000      	140.0000    	0.0000      	Open  	;
 P-20            	J-36            	I-AV-50         	560.0800    	8.0000      	140.0000    	0.0000      	Open  	;
 P-200           	J-269           	J-270           	8.9490      	6.0000      	140.0000    	0.0000      	Open  	;
 P-201           	J-270           	J-271           	2.2200      	6.0000      	140.0000    	0.0000      	Open  	;
 P-202           	J-271           	J-272           	8.1700      	6.0000      	140.0000    	0.0000      	Open  	;
 P-203           	J-32            	I-AV-82         	52.8600     	10.0000     	150.0000    	0.0000      	Open  	;
 P-204           	J-117           	I-AV-33         	49.6590     	8.0000      	150.0000    	0.0000      	Open  	;
 P-205           	J-192           	J-210           	138.7790    	6.0000      	149.0000    	0.0000      	Open  	;
 P-206           	J-210           	I-AV-6          	16.9690     	6.0000      	149.0000    	0.0000      	Open  	;
 P-207           	J-273           	J-184           	157.0200    	6.0000      	149.0000    	0.0000      	Open  	;
 P-208           	J-78            	J-37            	386.7200    	6.0000      	140.0000    	0.0000      	Open  	;
 P-209           	J-115           	J-63            	884.8900    	8.0000      	150.0000    	0.0000      	Open  	;
 P-21            	J-38            	I-AV-43         	15.8900     	8.0000      	140.0000    	0.0000      	Open  	;
 P-210           	J-274           	J-18            	315.3290    	6.0000      	149.0000    	0.0000      	Open  	;
 P-211           	J-19            	J-275           	4.0390      	6.0000      	149.0000    	0.0000      	Open  	;
 P-212           	J-276           	J-16            	259.5790    	6.0000      	149.0000    	0.0000      	Open  	;
 P-213           	J-12            	J-276           	145.5700    	6.0000      	149.0000    	0.0000      	Open  	;
 P-214           	J-277           	J-278           	272.4500    	6.0000      	149.0000    	0.0000      	Open  	;
 P-215           	J-17            	J-279           	5.1790      	6.0000      	149.0000    	0.0000      	Open  	;
 P-216           	J-279           	J-74            	25.4890     	6.0000      	149.0000    	0.0000      	Open  	;
 P-217           	J-167           	J-280           	8.7500      	6.0000      	140.0000    	0.0000      	Open  	;
 P-218           	J-19            	J-377           	851.1190    	6.0000      	149.0000    	0.0000      	Open  	;
 P-219           	J-281           	J-282           	7.6500      	6.0000      	140.0000    	0.0000      	Open  	;
 P-22            	J-27            	J-40            	568.8800    	8.0000      	140.0000    	0.0000      	Open  	;
 P-220           	J-283           	I-Food_World    	2.3390      	6.0000      	149.0000    	0.0000      	Open  	;
 P-221           	J-284           	J-285           	1426.0300   	6.0000      	149.0000    	0.0000      	Open  	;
 P-222           	J-285           	J-286           	4.3200      	6.0000      	149.0000    	0.0000      	Open  	;
 P-223           	J-286           	I-AV-12         	40.1500     	6.0000      	149.0000    	0.0000      	Open  	;
 P-224           	J-287           	J-128           	4.5700      	6.0000      	149.0000    	0.0000      	Open  	;
 P-225           	J-288           	I-AV-36         	309.9800    	6.0000      	149.0000    	0.0000      	Open  	;
 P-226           	J-289           	J-290           	14.0000     	6.0000      	149.0000    	0.0000      	Open  	;
 P-227           	J-291           	J-292           	15.8190     	6.0000      	149.0000    	0.0000      	Open  	;
 P-228           	J-293           	J-294           	3.7500      	6.0000      	149.0000    	0.0000      	Open  	;
 P-229           	J-295           	J-296           	499.1300    	6.0000      	149.0000    	0.0000      	Open  	;
 P-23            	J-41            	J-42            	367.7090    	8.0000      	140.0000    	0.0000      	Open  	;
 P-230           	J-297           	J-295           	136.8800    	6.0000      	149.0000    	0.0000      	Open  	;
 P-231           	J-298           	J-297           	151.6990    	6.0000      	149.0000    	0.0000      	Open  	;
 P-232           	J-122           	J-213           	510.7300    	6.0000      	149.0000    	0.0000      	Open  	;
 P-233           	J-282           	J-267           	3.7300      	6.0000      	140.0000    	0.0000      	Open  	;
 P-234           	J-131           	J-3             	40.1300     	6.0000      	140.0000    	0.0000      	Open  	;
 P-235           	J-135           	J-299           	151.5000    	6.0000      	140.0000    	0.0000      	Open  	;
 P-236           	J-300           	J-140           	247.8390    	6.0000      	140.0000    	0.0000      	Open  	;
 P-237           	J-217           	J-300           	17.0200     	6.0000      	140.0000    	0.0000      	Open  	;
 P-238           	J-178           	J-172           	22.3090     	6.0000      	149.0000    	0.0000      	Open  	;
 P-239           	J-172           	J-301           	11.9390     	6.0000      	149.0000    	0.0000      	Open  	;
 P-24            	J-13            	J-385           	1039.3490   	8.0000      	150.0000    	0.0000      	Open  	;
 P-240           	J-178           	J-20            	23.2700     	6.0000      	149.0000    	0.0000      	Open  	;
 P-241           	J-302           	J-303           	1868.9490   	6.0000      	149.0000    	0.0000      	Open  	;
 P-242           	J-303           	J-257           	1307.8000   	6.0000      	149.0000    	0.0000      	Open  	;
 P-243           	J-304           	J-305           	1206.3390   	6.0000      	149.0000    	0.0000      	Open  	;
 P-244           	J-305           	J-306           	1831.9790   	6.0000      	149.0000    	0.0000      	Open  	;
 P-245           	J-306           	J-307           	876.3490    	6.0000      	149.0000    	0.0000      	Open  	;
 P-246           	J-69            	J-118           	9.1990      	8.0000      	140.0000    	0.0000      	Open  	;
 P-247           	J-308           	J-180           	210.6790    	6.0000      	140.0000    	0.0000      	Open  	;
 P-248           	J-227           	J-87            	215.1390    	4.0000      	149.0000    	0.0000      	Open  	;
 P-249           	J-152           	J-309           	12.6300     	6.0000      	140.0000    	0.0000      	Open  	;
 P-25            	J-44            	J-41            	112.8890    	8.0000      	140.0000    	0.0000      	Open  	;
 P-250           	J-310           	J-277           	289.9890    	6.0000      	149.0000    	0.0000      	Open  	;
 P-251           	J-42            	J-311           	219.7500    	8.0000      	140.0000    	0.0000      	Open  	;
 P-252           	J-311           	I-AV-49         	11.0500     	8.0000      	140.0000    	0.0000      	Open  	;
 P-253           	J-71            	J-312           	49.5000     	6.0000      	149.0000    	0.0000      	Open  	;
 P-254           	J-312           	J-148           	3.8490      	6.0000      	149.0000    	0.0000      	Open  	;
 P-255           	J-278           	J-12            	245.8300    	6.0000      	149.0000    	0.0000      	Open  	;
 P-256           	J-313           	J-76            	9.2100      	6.0000      	149.0000    	0.0000      	Open  	;
 P-257           	J-15            	I-AV-92         	393.9500    	6.0000      	149.0000    	0.0000      	Open  	;
 P-258           	J-294           	J-283           	4.7190      	6.0000      	149.0000    	0.0000      	Open  	;
 P-259           	J-292           	J-293           	12.4600     	6.0000      	149.0000    	0.0000      	Open  	;
 P-26            	J-35            	J-45            	221.9600    	8.0000      	150.0000    	0.0000      	Open  	;
 P-260           	J-315           	J-291           	28.0690     	6.0000      	149.0000    	0.0000      	Open  	;
 P-261           	J-316           	J-315           	10.5390     	6.0000      	149.0000    	0.0000      	Open  	;
 P-262           	J-290           	J-316           	7.9800      	6.0000      	149.0000    	0.0000      	Open  	;
 P-264           	J-318           	J-319           	8.1800      	10.0000     	150.0000    	0.0000      	Open  	;
 P-265           	J-319           	J-320           	4.5990      	10.0000     	150.0000    	0.0000      	Open  	;
 P-266           	J-320           	J-321           	30.4500     	10.0000     	150.0000    	0.0000      	Open  	;
 P-267           	J-321           	J-31            	5.5190      	10.0000     	150.0000    	0.0000      	Open  	;
 P-268           	J-322           	J-99            	88.1690     	6.0000      	149.0000    	0.0000      	Open  	;
 P-269           	J-154           	J-322           	7.1190      	6.0000      	149.0000    	0.0000      	Open  	;
 P-270           	J-199           	J-323           	200.3690    	6.0000      	140.0000    	0.0000      	Open  	;
 P-271           	J-130           	J-198           	138.4490    	6.0000      	140.0000    	0.0000      	Open  	;
 P-272           	J-324           	I-AV-26         	3.8690      	6.0000      	140.0000    	0.0000      	Open  	;
 P-273           	J-325           	I-AV-27         	81.4300     	6.0000      	140.0000    	0.0000      	Open  	;
 P-274           	J-326           	J-324           	6.2890      	6.0000      	140.0000    	0.0000      	Open  	;
 P-275           	J-212           	J-211           	34.8490     	6.0000      	140.0000    	0.0000      	Open  	;
 P-276           	J-187           	J-194           	3.5690      	6.0000      	140.0000    	0.0000      	Open  	;
 P-277           	J-236           	J-200           	24.9590     	6.0000      	140.0000    	0.0000      	Open  	;
 P-278           	J-195           	J-106           	130.2590    	6.0000      	140.0000    	0.0000      	Open  	;
 P-279           	J-123           	J-327           	212.8500    	6.0000      	149.0000    	0.0000      	Open  	;
 P-28            	J-348           	O-AV-11         	34.2500     	6.0000      	149.0000    	0.0000      	Open  	;
 P-280           	J-142           	J-284           	88.3000     	6.0000      	149.0000    	0.0000      	Open  	;
 P-281           	J-162           	J-328           	273.3090    	6.0000      	140.0000    	0.0000      	Open  	;
 P-282           	J-328           	J-159           	9.2290      	6.0000      	140.0000    	0.0000      	Open  	;
 P-283           	J-79            	J-182           	113.1800    	6.0000      	140.0000    	0.0000      	Open  	;
 P-284           	J-241           	J-329           	24.5100     	6.0000      	140.0000    	0.0000      	Open  	;
 P-285           	J-329           	J-246           	6.4600      	6.0000      	140.0000    	0.0000      	Open  	;
 P-286           	J-241           	J-237           	52.0290     	6.0000      	140.0000    	0.0000      	Open  	;
 P-287           	J-330           	I-AV-13         	259.0400    	6.0000      	149.0000    	0.0000      	Open  	;
 P-288           	J-272           	J-170           	3.5000      	6.0000      	140.0000    	0.0000      	Open  	;
 P-289           	J-171           	J-47            	32.3190     	6.0000      	140.0000    	0.0000      	Open  	;
 P-29            	J-49            	J-50            	299.4800    	8.0000      	150.0000    	0.0000      	Open  	;
 P-290           	J-47            	I-AV-68         	91.8000     	8.0000      	150.0000    	0.0000      	Open  	;
 P-291           	J-332           	J-114           	165.9290    	8.0000      	150.0000    	0.0000      	Open  	;
 P-292           	J-261           	J-189           	12.1700     	6.0000      	149.0000    	0.0000      	Open  	;
 P-293           	J-262           	I-AV-89         	379.5790    	6.0000      	149.0000    	0.0000      	Open  	;
 P-294           	J-233           	J-220           	131.7400    	4.0000      	140.0000    	0.0000      	Open  	;
 P-295           	J-335           	J-240           	397.2500    	6.0000      	149.0000    	0.0000      	Open  	;
 P-296           	J-296           	J-336           	388.2690    	6.0000      	149.0000    	0.0000      	Open  	;
 P-297           	J-336           	I-AV-75         	86.8600     	6.0000      	149.0000    	0.0000      	Open  	;
 P-298           	J-205           	I-AV-79         	305.4500    	6.0000      	149.0000    	0.0000      	Open  	;
 P-299           	J-337           	J-338           	107.3490    	6.0000      	149.0000    	0.0000      	Open  	;
 P-3             	J-5             	J-6             	581.1090    	6.0000      	140.0000    	0.0000      	Open  	;
 P-30            	J-50            	J-51            	219.2790    	8.0000      	150.0000    	0.0000      	Open  	;
 P-300           	J-339           	I-AV-62         	747.4790    	6.0000      	149.0000    	0.0000      	Open  	;
 P-301           	J-150           	J-16            	101.2790    	6.0000      	140.0000    	0.0000      	Open  	;
 P-302           	J-296           	I-AV-77         	260.8990    	6.0000      	149.0000    	0.0000      	Open  	;
 P-303           	J-340           	J-341           	14.3000     	6.0000      	149.0000    	0.0000      	Open  	;
 P-304           	J-341           	J-214           	132.0390    	6.0000      	149.0000    	0.0000      	Open  	;
 P-305           	J-342           	J-214           	323.0490    	6.0000      	149.0000    	0.0000      	Open  	;
 P-306           	J-338           	J-343           	763.9190    	6.0000      	149.0000    	0.0000      	Open  	;
 P-307           	J-343           	I-AV-37         	878.6590    	6.0000      	149.0000    	0.0000      	Open  	;
 P-308           	J-344           	J-345           	3.6500      	6.0000      	149.0000    	0.0000      	Open  	;
 P-309           	J-345           	J-176           	837.3490    	6.0000      	149.0000    	0.0000      	Open  	;
 P-31            	J-52            	J-27            	509.2690    	8.0000      	140.0000    	0.0000      	Open  	;
 P-310           	J-177           	J-288           	705.1790    	6.0000      	149.0000    	0.0000      	Open  	;
 P-311           	J-346           	J-265           	56.5800     	6.0000      	149.0000    	0.0000      	Open  	;
 P-312           	J-143           	I-AV-17         	383.3990    	6.0000      	149.0000    	0.0000      	Open  	;
 P-313           	J-347           	I-AV-10         	73.4800     	6.0000      	149.0000    	0.0000      	Open  	;
 P-314           	J-262           	J-138           	0.5290      	6.0000      	149.0000    	0.0000      	Open  	;
 P-315           	J-348           	J-330           	3.2100      	6.0000      	149.0000    	0.0000      	Open  	;
 P-316           	J-23            	J-62            	110.6200    	6.0000      	140.0000    	0.0000      	Open  	;
 P-317           	J-62            	I-AV-47         	55.3190     	8.0000      	140.0000    	0.0000      	Open  	;
 P-318           	J-349           	J-56            	114.3300    	8.0000      	140.0000    	0.0000      	Open  	;
 P-319           	J-113           	I-AV-46         	35.7900     	8.0000      	140.0000    	0.0000      	Open  	;
 P-32            	J-53            	J-54            	384.3200    	8.0000      	140.0000    	0.0000      	Open  	;
 P-320           	J-67            	I-AV-52         	52.7790     	6.0000      	140.0000    	0.0000      	Open  	;
 P-321           	J-52            	I-AV-51         	143.3890    	6.0000      	140.0000    	0.0000      	Open  	;
 P-322           	J-38            	J-111           	46.7790     	8.0000      	140.0000    	0.0000      	Open  	;
 P-323           	J-18            	J-136           	459.4590    	6.0000      	149.0000    	0.0000      	Open  	;
 P-324           	J-137           	I-AV-73         	24.6000     	6.0000      	149.0000    	0.0000      	Open  	;
 P-325           	J-137           	J-350           	326.6700    	6.0000      	149.0000    	0.0000      	Open  	;
 P-326           	J-350           	J-11            	452.0290    	6.0000      	149.0000    	0.0000      	Open  	;
 P-327           	J-10            	J-351           	184.7790    	6.0000      	149.0000    	0.0000      	Open  	;
 P-328           	J-351           	J-313           	1520.4000   	6.0000      	149.0000    	0.0000      	Open  	;
 P-329           	J-352           	J-239           	370.6600    	6.0000      	140.0000    	0.0000      	Open  	;
 P-33            	J-55            	J-36            	122.7090    	8.0000      	140.0000    	0.0000      	Open  	;
 P-330           	J-24            	J-352           	25.8400     	6.0000      	140.0000    	0.0000      	Open  	;
 P-331           	J-317           	J-1             	70.4490     	6.0000      	140.0000    	0.0000      	Open  	;
 P-332           	J-116           	O-AV-9          	16.7990     	6.0000      	149.0000    	0.0000      	Open  	;
 P-333           	J-116           	O-AV-8          	13.5600     	6.0000      	149.0000    	0.0000      	Open  	;
 P-334           	J-103           	J-317           	8.4390      	6.0000      	140.0000    	0.0000      	Open  	;
 P-335           	J-356           	J-357           	7.4000      	6.0000      	149.0000    	0.0000      	Open  	;
 P-336           	J-333           	J-162           	311.5890    	6.0000      	140.0000    	0.0000      	Open  	;
 P-337           	J-193           	J-183           	319.7390    	6.0000      	149.0000    	0.0000      	Open  	;
 P-338           	J-183           	J-358           	154.8390    	6.0000      	149.0000    	0.0000      	Open  	;
 P-339           	J-359           	J-360           	597.2100    	6.0000      	140.0000    	0.0000      	Open  	;
 P-34            	J-34            	J-44            	111.6100    	8.0000      	140.0000    	0.0000      	Open  	;
 P-340           	J-360           	J-361           	60.1690     	6.0000      	140.0000    	0.0000      	Open  	;
 P-341           	J-361           	I-AV-30         	37.0090     	6.0000      	140.0000    	0.0000      	Open  	;
 P-342           	J-362           	J-363           	207.7290    	6.0000      	140.0000    	0.0000      	Open  	;
 P-343           	J-363           	J-364           	68.1900     	6.0000      	140.0000    	0.0000      	Open  	;
 P-344           	J-364           	J-68            	72.8390     	6.0000      	140.0000    	0.0000      	Open  	;
 P-345           	J-266           	J-353           	224.3990    	6.0000      	149.0000    	0.0000      	Open  	;
 P-346           	J-360           	J-365           	96.6500     	6.0000      	140.0000    	0.0000      	Open  	;
 P-347           	J-331           	I-AV-14         	100.3790    	6.0000      	149.0000    	0.0000      	Open  	;
 P-348           	J-357           	I-AV-15         	111.2900    	6.0000      	149.0000    	0.0000      	Open  	;
 P-349           	J-149           	J-356           	230.9900    	6.0000      	149.0000    	0.0000      	Open  	;
 P-35            	J-56            	I-AV-44         	12.4300     	8.0000      	140.0000    	0.0000      	Open  	;
 P-350           	J-368           	J-369           	858.5000    	4.0000      	149.0000    	0.0000      	Open  	;
 P-351           	J-98            	J-370           	824.1500    	4.0000      	149.0000    	0.0000      	Open  	;
 P-353           	J-83            	J-372           	45.8600     	6.0000      	149.0000    	0.0000      	Open  	;
 P-354           	J-175           	J-82            	1211.1500   	6.0000      	149.0000    	0.0000      	Open  	;
 P-355           	J-160           	J-196           	30.9090     	6.0000      	149.0000    	0.0000      	Open  	;
 P-356           	J-21            	J-373           	107.0800    	6.0000      	149.0000    	0.0000      	Open  	;
 P-357           	J-374           	I-AV-65         	1000.8200   	8.0000      	150.0000    	0.0000      	Open  	;
 P-358           	J-259           	J-213           	116.3700    	10.0000     	150.0000    	0.0000      	Open  	;
 P-359           	J-253           	I-AV-80         	64.4490     	10.0000     	150.0000    	0.0000      	Open  	;
 P-36            	J-57            	J-117           	106.8000    	8.0000      	150.0000    	0.0000      	Open  	;
 P-360           	J-255           	J-253           	39.1890     	10.0000     	150.0000    	0.0000      	Open  	;
 P-361           	J-375           	J-255           	7.6790      	10.0000     	150.0000    	0.0000      	Open  	;
 P-362           	J-376           	J-254           	366.2690    	10.0000     	150.0000    	0.0000      	Open  	;
 P-363           	J-121           	I-AV-74         	428.4290    	6.0000      	149.0000    	0.0000      	Open  	;
 P-364           	J-134           	I-AV-91         	537.2390    	6.0000      	149.0000    	0.0000      	Open  	;
 P-365           	J-378           	J-379           	15.9490     	8.0000      	140.0000    	0.0000      	Open  	;
 P-366           	J-379           	J-119           	19.6700     	8.0000      	140.0000    	0.0000      	Open  	;
 P-367           	J-380           	J-181           	70.4300     	6.0000      	140.0000    	0.0000      	Open  	;
 P-368           	J-208           	J-380           	24.5790     	6.0000      	140.0000    	0.0000      	Open  	;
 P-369           	J-381           	J-92            	60.8600     	4.0000      	140.0000    	0.0000      	Open  	;
 P-37            	J-59            	J-60            	943.4000    	8.0000      	150.0000    	0.0000      	Open  	;
 P-370           	J-173           	I-AV-56         	12.6890     	6.0000      	149.0000    	0.0000      	Open  	;
 P-371           	J-382           	J-302           	2.4700      	6.0000      	149.0000    	0.0000      	Open  	;
 P-372           	J-173           	J-229           	16.6800     	4.0000      	149.0000    	0.0000      	Open  	;
 P-373           	J-307           	I-AV-38         	984.6900    	6.0000      	149.0000    	0.0000      	Open  	;
 P-374           	J-383           	J-174           	29.4200     	6.0000      	149.0000    	0.0000      	Open  	;
 P-375           	J-82            	J-338           	306.9400    	6.0000      	149.0000    	0.0000      	Open  	;
 P-377           	I-931_South     	I-AV-23         	2266.1290   	6.0000      	149.0000    	0.0000      	Open  	;
 P-378           	O-Bartesta_Brancha	J-97            	25.2500     	4.0000      	149.0000    	0.0000      	Open  	;
 P-379           	O-Food_World    	J-120           	3.8590      	6.0000      	149.0000    	0.0000      	Open  	;
 P-38            	J-43            	I-AV-96         	2061.0500   	8.0000      	150.0000    	0.0000      	Open  	;
 P-380           	J-129           	O-AV-1          	1413.2600   	6.0000      	149.0000    	0.0000      	Open  	;
 P-381           	J-333           	J-146           	11.4700     	6.0000      	140.0000    	0.0000      	Open  	;
 P-382           	J-334           	J-108           	128.3000    	4.0000      	140.0000    	0.0000      	Open  	;
 P-383           	J-334           	J-102           	2.9500      	4.0000      	140.0000    	0.0000      	Open  	;
 P-384           	J-242           	J-151           	0.0700      	8.0000      	150.0000    	0.0000      	Open  	;
 P-385           	J-354           	J-84            	44.4790     	6.0000      	140.0000    	0.0000      	Open  	;
 P-386           	J-354           	J-225           	0.8190      	8.0000      	150.0000    	0.0000      	Open  	;
 P-387           	J-355           	J-226           	345.2000    	4.0000      	140.0000    	0.0000      	Open  	;
 P-388           	J-355           	J-381           	4.9200      	4.0000      	140.0000    	0.0000      	Open  	;
 P-389           	J-371           	I-AV-31         	419.1600    	8.0000      	150.0000    	0.0000      	Open  	;
 P-39            	J-62            	J-33            	118.0100    	8.0000      	140.0000    	0.0000      	Open  	;
 P-390           	J-384           	J-371           	20.9590     	8.0000      	150.0000    	0.0000      	Open  	;
 P-391           	J-385           	J-384           	1.1000      	8.0000      	150.0000    	0.0000      	Open  	;
 P-392           	J-385           	J-5             	1.3300      	8.0000      	150.0000    	0.0000      	Open  	;
 P-393           	J-386           	J-354           	97.8790     	6.0000      	140.0000    	0.0000      	Open  	;
 P-394           	J-386           	J-95            	1.6100      	6.0000      	140.0000    	0.0000      	Open  	;
 P-396           	J-58            	J-46            	306.4290    	8.0000      	150.0000    	0.0000      	Open  	;
 P-397           	J-387           	O-AV-24         	2083.4590   	8.0000      	140.0000    	0.0000      	Open  	;
 P-398           	J-387           	J-91            	1.8400      	8.0000      	140.0000    	0.0000      	Open  	;
 P-399           	J-388           	J-124           	113.7200    	6.0000      	140.0000    	0.0000      	Open  	;
 P-4             	J-7             	I-AV-32         	4.0590      	6.0000      	149.0000    	0.0000      	Open  	;
 P-40            	J-63            	I-AV-95         	1340.3000   	8.0000      	150.0000    	0.0000      	Open  	;
 P-400           	J-149           	O-AV-16         	513.2600    	6.0000      	149.0000    	0.0000      	Open  	;
 P-401           	J-388           	J-323           	4.0000      	6.0000      	140.0000    	0.0000      	Open  	;
 P-402           	J-117           	J-61            	189.0590    	8.0000      	150.0000    	0.0000      	Open  	;
 P-403           	J-47            	O-Pump-1        	11.4790     	6.0000      	140.0000    	0.0000      	Open  	;
 P-404           	J-25            	J-339           	41.2200     	6.0000      	149.0000    	0.0000      	Open  	;
 P-405           	J-234           	J-335           	352.5190    	6.0000      	149.0000    	0.0000      	Open  	;
 P-406           	J-69            	O-AV-7          	6.8800      	6.0000      	140.0000    	0.0000      	Open  	;
 P-407           	J-219           	J-112           	252.4600    	6.0000      	149.0000    	0.0000      	Open  	;
 P-408           	J-119           	I-AV-40         	45.4390     	8.0000      	140.0000    	0.0000      	Open  	;
 P-409           	J-238           	J-244           	0.6700      	6.0000      	140.0000    	0.0000      	Open  	;
 P-41            	J-64            	J-65            	579.4500    	8.0000      	140.0000    	0.0000      	Open  	;
 P-410           	J-168           	J-166           	0.2500      	6.0000      	149.0000    	0.0000      	Open  	;
 P-411           	J-389           	J-281           	59.3490     	6.0000      	140.0000    	0.0000      	Open  	;
 P-412           	J-280           	J-389           	20.9400     	6.0000      	140.0000    	0.0000      	Open  	;
 P-413           	J-310           	J-276           	326.8200    	6.0000      	149.0000    	0.0000      	Open  	;
 P-414           	J-8             	J-75            	184.0890    	6.0000      	149.0000    	0.0000      	Open  	;
 P-415           	J-185           	J-358           	499.0890    	6.0000      	149.0000    	0.0000      	Open  	;
 P-416           	J-367           	J-353           	653.4090    	6.0000      	149.0000    	0.0000      	Open  	;
 P-417           	J-373           	J-203           	342.6090    	6.0000      	149.0000    	0.0000      	Open  	;
 P-418           	J-203           	J-197           	186.7200    	6.0000      	149.0000    	0.0000      	Open  	;
 P-419           	J-257           	I-AV-88         	965.5300    	6.0000      	149.0000    	0.0000      	Open  	;
 P-42            	J-66            	J-67            	240.2400    	6.0000      	140.0000    	0.0000      	Open  	;
 P-420           	J-257           	J-230           	304.6790    	6.0000      	149.0000    	0.0000      	Open  	;
 P-421           	J-39            	J-95            	159.9790    	6.0000      	149.0000    	0.0000      	Open  	;
 P-422           	J-264           	J-379           	420.1300    	6.0000      	149.0000    	0.0000      	Open  	;
 P-423           	J-104           	J-2             	154.6490    	6.0000      	149.0000    	0.0000      	Open  	;
 P-424           	J-310           	J-150           	291.3090    	6.0000      	140.0000    	0.0000      	Open  	;
 P-425           	J-78            	J-202           	151.6490    	6.0000      	140.0000    	0.0000      	Open  	;
 P-426           	J-202           	J-101           	158.1300    	6.0000      	140.0000    	0.0000      	Open  	;
 P-427           	J-109           	J-101           	166.2590    	6.0000      	140.0000    	0.0000      	Open  	;
 P-428           	J-249           	J-237           	44.6590     	6.0000      	140.0000    	0.0000      	Open  	;
 P-429           	J-243           	J-248           	118.2090    	6.0000      	140.0000    	0.0000      	Open  	;
 P-43            	J-368           	J-98            	1.5590      	8.0000      	150.0000    	0.0000      	Open  	;
 P-430           	I-AV-1          	J-128           	119.9590    	6.0000      	149.0000    	0.0000      	Open  	;
 P-431           	O-AV-2          	J-178           	104.8000    	6.0000      	149.0000    	0.0000      	Open  	;
 P-432           	O-AV-3          	J-224           	13.6090     	4.0000      	149.0000    	0.0000      	Open  	;
 P-433           	O-AV-4          	J-185           	516.7600    	6.0000      	149.0000    	0.0000      	Open  	;
 P-434           	O-AV-5          	J-210           	17.2390     	6.0000      	149.0000    	0.0000      	Open  	;
 P-435           	O-AV-6          	J-273           	19.9690     	6.0000      	149.0000    	0.0000      	Open  	;
 P-436           	I-AV-7          	J-68            	333.6090    	6.0000      	140.0000    	0.0000      	Open  	;
 P-437           	I-AV-8          	J-48            	13.2500     	6.0000      	149.0000    	0.0000      	Open  	;
 P-438           	I-AV-9          	J-353           	338.5290    	6.0000      	149.0000    	0.0000      	Open  	;
 P-439           	O-AV-10         	J-126           	75.5690     	6.0000      	149.0000    	0.0000      	Open  	;
 P-44            	J-70            	J-71            	44.2700     	6.0000      	140.0000    	0.0000      	Open  	;
 P-440           	I-AV-11         	J-58            	221.7290    	6.0000      	149.0000    	0.0000      	Open  	;
 P-441           	O-AV-12         	J-287           	1056.0100   	6.0000      	149.0000    	0.0000      	Open  	;
 P-442           	O-AV-13         	J-331           	33.1100     	6.0000      	149.0000    	0.0000      	Open  	;
 P-443           	O-AV-14         	J-366           	21.7600     	6.0000      	149.0000    	0.0000      	Open  	;
 P-444           	O-AV-15         	J-367           	191.5090    	6.0000      	149.0000    	0.0000      	Open  	;
 P-445           	I-AV-16         	J-148           	35.8800     	6.0000      	149.0000    	0.0000      	Open  	;
 P-446           	O-AV-17         	J-346           	31.7290     	6.0000      	149.0000    	0.0000      	Open  	;
 P-447           	O-AV-18         	J-201           	195.0700    	6.0000      	140.0000    	0.0000      	Open  	;
 P-448           	O-AV-19         	J-195           	488.3390    	6.0000      	140.0000    	0.0000      	Open  	;
 P-449           	O-AV-20         	J-188           	411.3390    	6.0000      	140.0000    	0.0000      	Open  	;
 P-45            	J-72            	J-28            	133.3690    	6.0000      	140.0000    	0.0000      	Open  	;
 P-450           	I-AV-21         	J-187           	6.4400      	6.0000      	140.0000    	0.0000      	Open  	;
 P-451           	I-AV-22         	J-69            	14.9890     	6.0000      	140.0000    	0.0000      	Open  	;
 P-452           	O-AV-23         	J-85            	54.5900     	6.0000      	149.0000    	0.0000      	Open  	;
 P-453           	I-AV-24         	J-118           	6.9490      	8.0000      	140.0000    	0.0000      	Open  	;
 P-454           	O-AV-25         	J-217           	23.3500     	6.0000      	140.0000    	0.0000      	Open  	;
 P-455           	O-AV-26         	J-323           	130.0290    	6.0000      	140.0000    	0.0000      	Open  	;
 P-456           	O-AV-27         	J-326           	4.4800      	6.0000      	140.0000    	0.0000      	Open  	;
 P-457           	O-AV-28         	O-AV-21         	310.1190    	6.0000      	140.0000    	0.0000      	Open  	;
 P-458           	O-AV-29         	O-AV-22         	271.8690    	6.0000      	140.0000    	0.0000      	Open  	;
 P-459           	O-AV-30         	J-362           	96.1600     	6.0000      	140.0000    	0.0000      	Open  	;
 P-46            	J-73            	J-74            	514.0000    	6.0000      	149.0000    	0.0000      	Open  	;
 P-460           	O-AV-31         	J-43            	23.2190     	8.0000      	150.0000    	0.0000      	Open  	;
 P-461           	O-AV-32         	J-8             	630.2800    	6.0000      	149.0000    	0.0000      	Open  	;
 P-462           	O-AV-33         	J-48            	328.0490    	8.0000      	150.0000    	0.0000      	Open  	;
 P-463           	O-AV-34         	J-127           	15.7600     	6.0000      	149.0000    	0.0000      	Open  	;
 P-464           	O-AV-35         	J-123           	5808.0200   	6.0000      	149.0000    	0.0000      	Open  	;
 P-465           	O-AV-36         	J-96            	173.5590    	6.0000      	149.0000    	0.0000      	Open  	;
 P-466           	O-AV-37         	J-344           	10.8990     	6.0000      	149.0000    	0.0000      	Open  	;
 P-467           	O-AV-38         	J-383           	240.4700    	6.0000      	149.0000    	0.0000      	Open  	;
 P-468           	O-AV-39         	J-382           	33.0090     	6.0000      	149.0000    	0.0000      	Open  	;
 P-469           	O-AV-40         	J-387           	43.2990     	8.0000      	140.0000    	0.0000      	Open  	;
 P-47            	J-45            	J-75            	544.8690    	6.0000      	149.0000    	0.0000      	Open  	;
 P-470           	O-AV-41         	J-208           	48.4090     	6.0000      	140.0000    	0.0000      	Open  	;
 P-471           	O-AV-42         	J-65            	225.6790    	8.0000      	140.0000    	0.0000      	Open  	;
 P-472           	O-AV-43         	J-39            	301.9500    	8.0000      	140.0000    	0.0000      	Open  	;
 P-473           	O-AV-44         	J-38            	220.9600    	8.0000      	140.0000    	0.0000      	Open  	;
 P-474           	I-AV-45         	J-173           	9.3190      	6.0000      	149.0000    	0.0000      	Open  	;
 P-475           	O-AV-46         	J-349           	30.5400     	8.0000      	140.0000    	0.0000      	Open  	;
 P-476           	O-AV-47         	J-112           	93.1990     	8.0000      	140.0000    	0.0000      	Open  	;
 P-477           	O-AV-48         	J-34            	37.0490     	8.0000      	140.0000    	0.0000      	Open  	;
 P-478           	O-AV-49         	J-53            	64.0100     	8.0000      	140.0000    	0.0000      	Open  	;
 P-479           	O-AV-50         	J-37            	195.4790    	8.0000      	140.0000    	0.0000      	Open  	;
 P-48            	J-76            	I-AV-58         	203.3200    	6.0000      	149.0000    	0.0000      	Open  	;
 P-480           	O-AV-51         	J-66            	37.9000     	6.0000      	140.0000    	0.0000      	Open  	;
 P-481           	O-AV-52         	J-34            	190.4900    	6.0000      	140.0000    	0.0000      	Open  	;
 P-482           	O-AV-53         	J-238           	57.2290     	6.0000      	140.0000    	0.0000      	Open  	;
 P-483           	O-AV-54         	J-241           	0.4000      	6.0000      	140.0000    	0.0000      	Open  	;
 P-484           	O-AV-55         	J-231           	14.2700     	6.0000      	140.0000    	0.0000      	Open  	;
 P-485           	O-AV-56         	I-AV-39         	418.2900    	6.0000      	149.0000    	0.0000      	Open  	;
 P-486           	O-AV-57         	J-9             	820.9090    	6.0000      	149.0000    	0.0000      	Open  	;
 P-487           	O-AV-58         	J-77            	1473.2090   	6.0000      	149.0000    	0.0000      	Open  	;
 P-488           	O-AV-59         	J-223           	179.1900    	4.0000      	140.0000    	0.0000      	Open  	;
 P-489           	O-AV-60         	J-79            	12.3400     	6.0000      	140.0000    	0.0000      	Open  	;
 P-49            	J-78            	I-AV-60         	279.5790    	6.0000      	140.0000    	0.0000      	Open  	;
 P-490           	O-AV-61         	J-25            	17.8090     	6.0000      	140.0000    	0.0000      	Open  	;
 P-491           	O-AV-62         	J-335           	52.8400     	6.0000      	149.0000    	0.0000      	Open  	;
 P-492           	O-AV-63         	J-24            	7.3200      	6.0000      	140.0000    	0.0000      	Open  	;
 P-493           	O-AV-64         	J-317           	76.2500     	6.0000      	140.0000    	0.0000      	Open  	;
 P-494           	O-AV-65         	J-63            	350.7600    	8.0000      	150.0000    	0.0000      	Open  	;
 P-495           	O-AV-66         	J-167           	8.0600      	6.0000      	140.0000    	0.0000      	Open  	;
 P-496           	O-AV-67         	J-230           	2667.2190   	4.0000      	149.0000    	0.0000      	Open  	;
 P-497           	O-AV-68         	J-332           	4.8290      	8.0000      	150.0000    	0.0000      	Open  	;
 P-498           	O-AV-69         	J-171           	1.6590      	6.0000      	140.0000    	0.0000      	Open  	;
 P-499           	O-AV-70         	J-115           	209.1600    	8.0000      	150.0000    	0.0000      	Open  	;
 P-5             	J-9             	J-10            	93.1100     	6.0000      	149.0000    	0.0000      	Open  	;
 P-50            	J-80            	J-81            	230.1900    	6.0000      	149.0000    	0.0000      	Open  	;
 P-500           	O-AV-71         	J-261           	141.3390    	6.0000      	149.0000    	0.0000      	Open  	;
 P-501           	O-AV-72         	J-17            	1.8500      	6.0000      	149.0000    	0.0000      	Open  	;
 P-502           	O-AV-73         	J-14            	322.2600    	6.0000      	149.0000    	0.0000      	Open  	;
 P-503           	O-AV-74         	J-274           	72.5890     	6.0000      	149.0000    	0.0000      	Open  	;
 P-504           	O-AV-75         	J-289           	145.7400    	6.0000      	149.0000    	0.0000      	Open  	;
 P-505           	O-AV-76         	J-121           	1163.2600   	6.0000      	149.0000    	0.0000      	Open  	;
 P-506           	O-AV-77         	J-340           	29.1590     	6.0000      	149.0000    	0.0000      	Open  	;
 P-507           	O-AV-78         	O-AV-45         	41.9190     	6.0000      	149.0000    	0.0000      	Open  	;
 P-508           	O-AV-79         	J-298           	44.6590     	6.0000      	149.0000    	0.0000      	Open  	;
 P-509           	O-AV-80         	J-259           	399.7090    	10.0000     	150.0000    	0.0000      	Open  	;
 P-51            	J-82            	J-83            	1334.2600   	6.0000      	149.0000    	0.0000      	Open  	;
 P-510           	O-AV-81         	J-251           	340.0290    	10.0000     	150.0000    	0.0000      	Open  	;
 P-511           	O-AV-82         	J-258           	379.9890    	10.0000     	150.0000    	0.0000      	Open  	;
 P-512           	O-AV-83         	J-32            	843.9890    	10.0000     	150.0000    	0.0000      	Open  	;
 P-513           	O-AV-84         	J-122           	418.1090    	6.0000      	149.0000    	0.0000      	Open  	;
 P-514           	O-AV-85         	J-154           	119.2300    	6.0000      	149.0000    	0.0000      	Open  	;
 P-515           	O-AV-86         	J-262           	1009.2190   	6.0000      	149.0000    	0.0000      	Open  	;
 P-516           	O-AV-87         	J-21            	455.9500    	6.0000      	149.0000    	0.0000      	Open  	;
 P-517           	J-374           	J-15            	3567.5300   	8.0000      	150.0000    	0.0000      	Open  	;
 P-518           	J-342           	J-132           	326.6900    	8.0000      	150.0000    	0.0000      	Open  	;
 P-519           	J-252           	J-100           	778.1090    	8.0000      	150.0000    	0.0000      	Open  	;
 P-52            	J-84            	J-56            	329.3090    	4.0000      	140.0000    	0.0000      	Open  	;
 P-520           	J-100           	I-AV-90         	728.8690    	8.0000      	150.0000    	0.0000      	Open  	;
 P-521           	J-228           	J-6             	268.0700    	4.0000      	149.0000    	0.0000      	Open  	;
 P-522           	J-235           	J-6             	571.5900    	4.0000      	140.0000    	0.0000      	Open  	;
 P-523           	J-6             	J-65            	413.8200    	4.0000      	140.0000    	0.0000      	Open  	;
 P-524           	J-46            	J-367           	205.2400    	4.0000      	140.0000    	0.0000      	Open  	;
 P-525           	O-AV-88         	J-304           	648.0990    	6.0000      	149.0000    	0.0000      	Open  	;
 P-526           	O-AV-89         	J-156           	216.1900    	6.0000      	149.0000    	0.0000      	Open  	;
 P-527           	O-AV-90         	J-59            	1601.1400   	8.0000      	150.0000    	0.0000      	Open  	;
 P-528           	O-AV-91         	J-377           	400.7690    	6.0000      	149.0000    	0.0000      	Open  	;
 P-529           	O-AV-92         	J-19            	534.2190    	6.0000      	149.0000    	0.0000      	Open  	;
 P-53            	J-85            	J-86            	3138.2700   	4.0000      	149.0000    	0.0000      	Open  	;
 P-530           	O-AV-93         	J-12            	587.2990    	6.0000      	149.0000    	0.0000      	Open  	;
 P-531           	O-AV-94         	J-47            	255.5000    	6.0000      	140.0000    	0.0000      	Open  	;
 P-532           	O-AV-95         	J-13            	2100.6000   	8.0000      	150.0000    	0.0000      	Open  	;
 P-533           	O-AV-96         	J-61            	1049.3390   	8.0000      	150.0000    	0.0000      	Open  	;
 P-54            	J-87            	J-42            	313.8200    	4.0000      	140.0000    	0.0000      	Open  	;
 P-55            	J-88            	J-89            	163.0200    	4.0000      	149.0000    	0.0000      	Open  	;
 P-56            	J-90            	J-91            	380.0290    	4.0000      	149.0000    	0.0000      	Open  	;
 P-57            	J-92            	J-93            	243.1600    	4.0000      	140.0000    	0.0000      	Open  	;
 P-58            	J-94            	J-95            	52.8600     	4.0000      	140.0000    	0.0000      	Open  	;
 P-59            	J-96            	I-Bartesta_Brancha	153.5500    	4.0000      	149.0000    	0.0000      	Open  	;
 P-6             	J-11            	I-AV-93         	1019.2990   	6.0000      	149.0000    	0.0000      	Open  	;
 P-60            	J-97            	J-98            	2169.8600   	4.0000      	149.0000    	0.0000      	Open  	;
 P-61            	J-99            	J-100           	590.0300    	2.0000      	147.0000    	0.0000      	Open  	;
 P-62            	J-101           	J-102           	495.2000    	2.0000      	140.0000    	0.0000      	Open  	;
 P-63            	J-103           	J-104           	323.4500    	2.0000      	140.0000    	0.0000      	Open  	;
 P-64            	J-50            	J-105           	722.4190    	2.0000      	147.0000    	0.0000      	Open  	;
 P-65            	J-106           	J-107           	395.1490    	2.0000      	147.0000    	0.0000      	Open  	;
 P-66            	J-108           	J-109           	348.8500    	1.0000      	140.0000    	0.0000      	Open  	;
 P-67            	J-93            	J-110           	795.7700    	1.0000      	140.0000    	0.0000      	Open  	;
 P-68            	J-111           	I-AV-42         	13.3590     	8.0000      	140.0000    	0.0000      	Open  	;
 P-69            	J-88            	J-34            	893.8690    	8.0000      	150.0000    	0.0000      	Open  	;
 P-7             	J-13            	J-7             	347.0100    	6.0000      	149.0000    	0.0000      	Open  	;
 P-70            	J-112           	J-113           	330.4500    	8.0000      	140.0000    	0.0000      	Open  	;
 P-71            	J-114           	I-AV-70         	9.9200      	8.0000      	150.0000    	0.0000      	Open  	;
 P-72            	J-51            	J-43            	57.7900     	8.0000      	150.0000    	0.0000      	Open  	;
 P-73            	J-209           	J-327           	72.1500     	8.0000      	150.0000    	0.0000      	Open  	;
 P-74            	J-164           	J-73            	379.1490    	6.0000      	149.0000    	0.0000      	Open  	;
 P-75            	J-120           	I-AV-76         	113.4300    	6.0000      	149.0000    	0.0000      	Open  	;
 P-76            	J-99            	I-AV-84         	79.6600     	6.0000      	149.0000    	0.0000      	Open  	;
 P-77            	J-96            	I-AV-35         	91.3300     	6.0000      	149.0000    	0.0000      	Open  	;
 P-78            	J-124           	J-125           	92.1900     	6.0000      	149.0000    	0.0000      	Open  	;
 P-79            	J-126           	J-127           	266.0490    	6.0000      	149.0000    	0.0000      	Open  	;
 P-8             	J-14            	J-15            	779.0590    	6.0000      	149.0000    	0.0000      	Open  	;
 P-80            	J-169           	J-164           	3.8900      	6.0000      	149.0000    	0.0000      	Open  	;
 P-81            	J-130           	J-131           	276.7790    	6.0000      	140.0000    	0.0000      	Open  	;
 P-82            	J-132           	J-133           	0.5690      	6.0000      	149.0000    	0.0000      	Open  	;
 P-83            	J-133           	J-134           	1750.1190   	6.0000      	149.0000    	0.0000      	Open  	;
 P-84            	J-3             	J-135           	284.4100    	6.0000      	140.0000    	0.0000      	Open  	;
 P-85            	J-136           	J-137           	421.7900    	6.0000      	149.0000    	0.0000      	Open  	;
 P-86            	J-138           	J-59            	2036.1500   	6.0000      	149.0000    	0.0000      	Open  	;
 P-87            	J-139           	J-388           	207.1900    	6.0000      	140.0000    	0.0000      	Open  	;
 P-88            	J-140           	J-3             	178.3090    	6.0000      	140.0000    	0.0000      	Open  	;
 P-89            	J-141           	J-139           	63.2900     	6.0000      	140.0000    	0.0000      	Open  	;
 P-9             	J-16            	I-AV-72         	758.7890    	6.0000      	149.0000    	0.0000      	Open  	;
 P-90            	J-85            	J-142           	1114.9490   	6.0000      	149.0000    	0.0000      	Open  	;
 P-91            	J-71            	J-143           	76.0890     	6.0000      	149.0000    	0.0000      	Open  	;
 P-92            	J-144           	I-AV-57         	18.7000     	6.0000      	149.0000    	0.0000      	Open  	;
 P-93            	J-28            	J-145           	267.3690    	6.0000      	140.0000    	0.0000      	Open  	;
 P-94            	J-146           	J-147           	344.3990    	6.0000      	140.0000    	0.0000      	Open  	;
 P-95            	J-261           	J-169           	10.4090     	6.0000      	149.0000    	0.0000      	Open  	;
 P-96            	J-150           	I-AV-94         	234.8500    	6.0000      	140.0000    	0.0000      	Open  	;
 P-97            	J-151           	J-26            	342.0590    	6.0000      	140.0000    	0.0000      	Open  	;
 P-98            	J-37            	J-152           	391.5590    	6.0000      	140.0000    	0.0000      	Open  	;
 P-99            	J-153           	I-AV-85         	2700.7190   	6.0000      	149.0000    	0.0000      	Open  	;
 1               	1               	J-129           	1445.0000   	6.0000      	149.0000    	0.0000      	Open  	;
 2               	2               	J-369           	161.0000    	4.0000      	149.0000    	0.0000      	Open  	;
 3               	3               	J-389           	26.0000     	6.0000      	140.0000    	0.0000      	Open  	;
 4               	4               	J-40            	523.0000    	8.0000      	140.0000    	0.0000      	Open  	;
 5               	5               	J-318           	38.0000     	10.0000     	150.0000    	0.0000      	Open  	;
 6               	6               	J-46            	50.0000     	8.0000      	150.0000    	0.0000      	Open  	;
 7               	7               	J-166           	50.0000     	6.0000      	149.0000    	0.0000      	Open  	;

[PUMPS]
;ID              	Node1           	Node2           	Parameters
 ~@931_South     	I-931_South     	O-931_South     	POWER 5.0000	;
 ~@Bartesta_Brancha	I-Bartesta_Brancha	O-Bartesta_Brancha	POWER 2.0000	;
 ~@Food_World    	I-Food_World    	O-Food_World    	POWER 20.0000	;
 ~@Pump-1        	I-Pump-1        	O-Pump-1        	POWER 25.0000	;

[VALVES]
;ID              	Node1           	Node2           	Diameter    	Type	Setting     	MinorLoss   
 ~@AV-1          	I-AV-1          	O-AV-1          	1000.0000   	TCV 	100.0000    	0.0000      	;
 ~@AV-10         	I-AV-10         	O-AV-10         	1000.0000   	TCV 	100.0000    	0.0000      	;
 ~@AV-11         	I-AV-11         	O-AV-11         	1000.0000   	TCV 	100.0000    	0.0000      	;
 ~@AV-12         	I-AV-12         	O-AV-12         	1000.0000   	TCV 	100.0000    	0.0000      	;
 ~@AV-13         	I-AV-13         	O-AV-13         	1000.0000   	TCV 	100.0000    	0.0000      	;
 ~@AV-14         	I-AV-14         	O-AV-14         	1000.0000   	TCV 	100.0000    	0.0000      	;
 ~@AV-15         	I-AV-15         	O-AV-15         	1000.0000   	TCV 	100.0000    	0.0000      	;
 ~@AV-16         	I-AV-16         	O-AV-16         	1000.0000   	TCV 	100.0000    	0.0000      	;
 ~@AV-17         	I-AV-17         	O-AV-17         	1000.0000   	TCV 	100.0000    	0.0000      	;
 ~@AV-18         	I-AV-18         	O-AV-18         	1000.0000   	TCV 	100.0000    	0.0000      	;
 ~@AV-19         	I-AV-19         	O-AV-19         	1000.0000   	TCV 	100.0000    	0.0000      	;
 ~@AV-2          	I-AV-2          	O-AV-2          	1000.0000   	TCV 	100.0000    	0.0000      	;
 ~@AV-20         	I-AV-20         	O-AV-20         	1000.0000   	TCV 	100.0000    	0.0000      	;
 ~@AV-21         	I-AV-21         	O-AV-21         	1000.0000   	TCV 	100.0000    	0.0000      	;
 ~@AV-22         	I-AV-22         	O-AV-22         	1000.0000   	TCV 	100.0000    	0.0000      	;
 ~@AV-23         	I-AV-23         	O-AV-23         	1000.0000   	TCV 	100.0000    	0.0000      	;
 ~@AV-24         	I-AV-24         	O-AV-24         	1000.0000   	TCV 	100.0000    	0.0000      	;
 ~@AV-25         	I-AV-25         	O-AV-25         	1000.0000   	TCV 	100.0000    	0.0000      	;
 ~@AV-26         	I-AV-26         	O-AV-26         	1000.0000   	TCV 	100.0000    	0.0000      	;
 ~@AV-27         	I-AV-27         	O-AV-27         	1000.0000   	TCV 	100.0000    	0.0000      	;
 ~@AV-28         	I-AV-28         	O-AV-28         	1000.0000   	TCV 	100.0000    	0.0000      	;
 ~@AV-29         	I-AV-29         	O-AV-29         	1000.0000   	TCV 	100.0000    	0.0000      	;
 ~@AV-3          	I-AV-3          	O-AV-3          	1000.0000   	TCV 	100.0000    	0.0000      	;
 ~@AV-30         	I-AV-30         	O-AV-30         	1000.0000   	TCV 	100.0000    	0.0000      	;
 ~@AV-31         	I-AV-31         	O-AV-31         	1000.0000   	TCV 	100.0000    	0.0000      	;
 ~@AV-32         	I-AV-32         	O-AV-32         	1000.0000   	TCV 	100.0000    	0.0000      	;
 ~@AV-33         	I-AV-33         	O-AV-33         	1000.0000   	TCV 	100.0000    	0.0000      	;
 ~@AV-34         	I-AV-34         	O-AV-34         	1000.0000   	TCV 	100.0000    	0.0000      	;
 ~@AV-35         	I-AV-35         	O-AV-35         	1000.0000   	TCV 	100.0000    	0.0000      	;
 ~@AV-36         	I-AV-36         	O-AV-36         	1000.0000   	TCV 	100.0000    	0.0000      	;
 ~@AV-37         	I-AV-37         	O-AV-37         	1000.0000   	TCV 	100.0000    	0.0000      	;
 ~@AV-38         	I-AV-38         	O-AV-38         	1000.0000   	TCV 	100.0000    	0.0000      	;
 ~@AV-39         	I-AV-39         	O-AV-39         	1000.0000   	TCV 	100.0000    	0.0000      	;
 ~@AV-4          	I-AV-4          	O-AV-4          	1000.0000   	TCV 	100.0000    	0.0000      	;
 ~@AV-40         	I-AV-40         	O-AV-40         	1000.0000   	TCV 	100.0000    	0.0000      	;
 ~@AV-41         	I-AV-41         	O-AV-41         	1000.0000   	TCV 	100.0000    	0.0000      	;
 ~@AV-42         	I-AV-42         	O-AV-42         	1000.0000   	TCV 	100.0000    	0.0000      	;
 ~@AV-43         	I-AV-43         	O-AV-43         	1000.0000   	TCV 	100.0000    	0.0000      	;
 ~@AV-44         	I-AV-44         	O-AV-44         	1000.0000   	TCV 	100.0000    	0.0000      	;
 ~@AV-45         	I-AV-45         	O-AV-45         	1000.0000   	TCV 	100.0000    	0.0000      	;
 ~@AV-46         	I-AV-46         	O-AV-46         	1000.0000   	TCV 	100.0000    	0.0000      	;
 ~@AV-47         	I-AV-47         	O-AV-47         	1000.0000   	TCV 	100.0000    	0.0000      	;
 ~@AV-48         	I-AV-48         	O-AV-48         	1000.0000   	TCV 	100.0000    	0.0000      	;
 ~@AV-49         	I-AV-49         	O-AV-49         	1000.0000   	TCV 	100.0000    	0.0000      	;
 ~@AV-5          	I-AV-5          	O-AV-5          	1000.0000   	TCV 	100.0000    	0.0000      	;
 ~@AV-50         	I-AV-50         	O-AV-50         	1000.0000   	TCV 	100.0000    	0.0000      	;
 ~@AV-51         	I-AV-51         	O-AV-51         	1000.0000   	TCV 	100.0000    	0.0000      	;
 ~@AV-52         	I-AV-52         	O-AV-52         	1000.0000   	TCV 	100.0000    	0.0000      	;
 ~@AV-53         	I-AV-53         	O-AV-53         	1000.0000   	TCV 	100.0000    	0.0000      	;
 ~@AV-54         	I-AV-54         	O-AV-54         	1000.0000   	TCV 	100.0000    	0.0000      	;
 ~@AV-55         	I-AV-55         	O-AV-55         	1000.0000   	TCV 	100.0000    	0.0000      	;
 ~@AV-56         	I-AV-56         	O-AV-56         	1000.0000   	TCV 	100.0000    	0.0000      	;
 ~@AV-57         	I-AV-57         	O-AV-57         	1000.0000   	TCV 	100.0000    	0.0000      	;
 ~@AV-58         	I-AV-58         	O-AV-58         	1000.0000   	TCV 	100.0000    	0.0000      	;
 ~@AV-59         	I-AV-59         	O-AV-59         	1000.0000   	TCV 	100.0000    	0.0000      	;
 ~@AV-6          	I-AV-6          	O-AV-6          	1000.0000   	TCV 	100.0000    	0.0000      	;
 ~@AV-60         	I-AV-60         	O-AV-60         	1000.0000   	TCV 	100.0000    	0.0000      	;
 ~@AV-61         	I-AV-61         	O-AV-61         	1000.0000   	TCV 	100.0000    	0.0000      	;
 ~@AV-62         	I-AV-62         	O-AV-62         	1000.0000   	TCV 	100.0000    	0.0000      	;
 ~@AV-63         	I-AV-63         	O-AV-63         	1000.0000   	TCV 	100.0000    	0.0000      	;
 ~@AV-64         	I-AV-64         	O-AV-64         	1000.0000   	TCV 	100.0000    	0.0000      	;
 ~@AV-65         	I-AV-65         	O-AV-65         	1000.0000   	TCV 	100.0000    	0.0000      	;
 ~@AV-66         	I-AV-66         	O-AV-66         	1000.0000   	TCV 	100.0000    	0.0000      	;
 ~@AV-67         	I-AV-67         	O-AV-67         	1000.0000   	TCV 	100.0000    	0.0000      	;
 ~@AV-68         	I-AV-68         	O-AV-68         	1000.0000   	TCV 	100.0000    	0.0000      	;
 ~@AV-69         	I-AV-69         	O-AV-69         	1000.0000   	TCV 	100.0000    	0.0000      	;
 ~@AV-7          	I-AV-7          	O-AV-7          	1000.0000   	TCV 	100.0000    	0.0000      	;
 ~@AV-70         	I-AV-70         	O-AV-70         	1000.0000   	TCV 	100.0000    	0.0000      	;
 ~@AV-71         	I-AV-71         	O-AV-71         	1000.0000   	TCV 	100.0000    	0.0000      	;
 ~@AV-72         	I-AV-72         	O-AV-72         	1000.0000   	TCV 	100.0000    	0.0000      	;
 ~@AV-73         	I-AV-73         	O-AV-73         	1000.0000   	TCV 	100.0000    	0.0000      	;
 ~@AV-74         	I-AV-74         	O-AV-74         	1000.0000   	TCV 	100.0000    	0.0000      	;
 ~@AV-75         	I-AV-75         	O-AV-75         	1000.0000   	TCV 	100.0000    	0.0000      	;
 ~@AV-76         	I-AV-76         	O-AV-76         	1000.0000   	TCV 	100.0000    	0.0000      	;
 ~@AV-77         	I-AV-77         	O-AV-77         	1000.0000   	TCV 	100.0000    	0.0000      	;
 ~@AV-78         	I-AV-78         	O-AV-78         	1000.0000   	TCV 	100.0000    	0.0000      	;
 ~@AV-79         	I-AV-79         	O-AV-79         	1000.0000   	TCV 	100.0000    	0.0000      	;
 ~@AV-8          	I-AV-8          	O-AV-8          	1000.0000   	TCV 	100.0000    	0.0000      	;
 ~@AV-80         	I-AV-80         	O-AV-80         	1000.0000   	TCV 	100.0000    	0.0000      	;
 ~@AV-81         	I-AV-81         	O-AV-81         	1000.0000   	TCV 	100.0000    	0.0000      	;
 ~@AV-82         	I-AV-82         	O-AV-82         	1000.0000   	TCV 	100.0000    	0.0000      	;
 ~@AV-83         	I-AV-83         	O-AV-83         	1000.0000   	TCV 	100.0000    	0.0000      	;
 ~@AV-84         	I-AV-84         	O-AV-84         	1000.0000   	TCV 	100.0000    	0.0000      	;
 ~@AV-85         	I-AV-85         	O-AV-85         	1000.0000   	TCV 	100.0000    	0.0000      	;
 ~@AV-86         	I-AV-86         	O-AV-86         	1000.0000   	TCV 	100.0000    	0.0000      	;
 ~@AV-87         	I-AV-87         	O-AV-87         	1000.0000   	TCV 	100.0000    	0.0000      	;
 ~@AV-88         	I-AV-88         	O-AV-88         	1000.0000   	TCV 	100.0000    	0.0000      	;
 ~@AV-89         	I-AV-89         	O-AV-89         	1000.0000   	TCV 	100.0000    	0.0000      	;
 ~@AV-9          	I-AV-9          	O-AV-9          	1000.0000   	TCV 	100.0000    	0.0000      	;
 ~@AV-90         	I-AV-90         	O-AV-90         	1000.0000   	TCV 	100.0000    	0.0000      	;
 ~@AV-91         	I-AV-91         	O-AV-91         	1000.0000   	TCV 	100.0000    	0.0000      	;
 ~@AV-92         	I-AV-92         	O-AV-92         	1000.0000   	TCV 	100.0000    	0.0000      	;
 ~@AV-93         	I-AV-93         	O-AV-93         	1000.0000   	TCV 	100.0000    	0.0000      	;
 ~@AV-94         	I-AV-94         	O-AV-94         	1000.0000   	TCV 	100.0000    	0.0000      	;
 ~@AV-95         	I-AV-95         	O-AV-95         	1000.0000   	TCV 	100.0000    	0.0000      	;
 ~@AV-96         	I-AV-96         	O-AV-96         	1000.0000   	TCV 	100.0000    	0.0000      	;

[TAGS]

[DEMANDS]
;Junction        	Demand      	Pattern         	Category

[STATUS]
;ID              	Status/Setting

[PATTERNS]
;ID              	Multipliers
;
 1               	1.0000      	0.2500      	0.2090      	0.2090      	0.2590      	0.3600      
 1               	0.5290      	0.9100      	1.2000      	1.2990      	1.3400      	1.3400      
 1               	1.3200      	1.2690      	1.2500      	1.2500      	1.2790      	1.3700      
 1               	1.5190      	1.7000      	1.7500      	1.6690      	0.8990      	0.4790      
 1               	0.4790      	0.4790      	0.4790      	0.4790      	0.4790      	0.4790      
 1               	0.4790      	0.4790      	0.4790      	0.4790      	0.4790      	0.4790      
 1               	0.4790      	0.4790      	0.4790      	0.4790      	0.4790      	0.4790      
 1               	0.4790      	0.4790      	0.4790      	0.4790      	0.4790      	0.4790      
 1               	0.4790      	0.4790      	0.4790      	0.4790      	0.4790      	0.4790      
 1               	0.4790      	0.4790      	0.4790      	0.4790      	0.4790      	0.4790      
 1               	0.4790      	0.4790      	0.4790      	0.4790      	0.4790      	0.4790      
 1               	0.4790      	0.4790      	0.4790      	0.4790      	0.4790      	0.4790      
 1               	0.4790      	0.4790      	0.4790      	0.4790      	0.4790      	0.4790      
 1               	0.4790      	0.4790      	0.4790      	0.4790      	0.4790      	0.4790      
 1               	0.4790      	0.4790      	0.4790      	0.4790      	0.4790      	0.4790      
 1               	0.4790      	0.4790      	0.4790      	0.4790      	0.4790      	0.4790      
 1               	0.4790      	0.4790      	0.4790      	0.4790      	0.4790      	0.4790      
 1               	0.4790      	0.4790      	0.4790      	0.4790      	0.4790      	0.4790      
 1               	0.4790      	0.4790      	0.4790      	0.4790      	0.4790      	0.4790      
 1               	0.4790      	0.4790      	0.4790      	0.4790      	0.4790      	0.4790      
 1               	0.4790      	0.4790      	0.4790      	0.4790      	0.4790      	0.4790      
 1               	0.4790      	0.4790      	0.4790      	0.4790      	0.4790      	0.4790      
 1               	0.4790      	0.4790      	0.4790      	0.4790      	0.4790      	0.4790      
 1               	0.4790      	0.4790      	0.4790      	0.4790      	0.4790      	0.4790      
 1               	0.4790      	0.4790      	0.4790      	0.4790      	0.4790      	0.4790      
 1               	0.4790      	0.4790      	0.4790      	0.4790      	0.4790      	0.4790      
 1               	0.4790      	0.4790      	0.4790      	0.4790      	0.4790      	0.4790      
 1               	0.4790      	0.4790      	0.4790      	0.4790      	0.4790      	0.4790      
 1               	0.4790      	0.4790      	0.4790      	0.4790      	0.4790      	0.4790      
 1               	0.4790      	0.4790      	0.4790      	0.4790      	0.4790      	0.4790      
 1               	0.4790      	0.4790      	0.4790      	0.4790      	0.4790      	0.4790      
 1               	0.4790      	0.4790      	0.4790      	0.4790      	0.4790      	0.4790      
;
 11              	1.0000      
;
 ENRG1           	1.0000      	1.0000      	1.0000      	1.0000      	1.0000      	1.0000      
 ENRG1           	1.0000      	1.0000      	1.0000      	1.0000      	1.0000      	1.0000      
 ENRG1           	1.0000      	1.0000      	1.0000      	1.0000      	1.0000      	1.0000      
 ENRG1           	1.0000      	1.0000      

[CURVES]
;ID              	X-Value     	Y-Value

[CONTROLS]






[RULES]





[ENERGY]
 Global Efficiency  	75.0000
 Global Price       	0
 Demand Charge      	0.0000

[EMITTERS]
;Junction        	Coefficient

[QUALITY]
;Node            	InitQual
 O-931_South     	799.669434
 I-AV-1          	799.916687
 O-AV-10         	37.106461
 I-AV-11         	18.366796
 I-AV-12         	799.833313
 I-AV-13         	27.064415
 I-AV-14         	83.190269
 I-AV-15         	13.467739
 O-AV-16         	17.243355
 I-AV-17         	10.867309
 I-AV-18         	32.372066
 O-AV-19         	18.225605
 I-AV-2          	9.709914
 I-AV-20         	18.370058
 I-AV-21         	18.703613
 O-AV-22         	16.371805
 I-AV-23         	799.708313
 O-AV-24         	15.893226
 O-AV-25         	30.348877
 I-AV-26         	24.491398
 I-AV-27         	27.389822
 I-AV-28         	16.181623
 O-AV-29         	159.998306
 I-AV-3          	32.844158
 O-AV-30         	21.322498
 I-AV-31         	9.238703
 O-AV-32         	9.589003
 I-AV-33         	9.497078
 I-AV-34         	8.812116
 O-AV-35         	20.323196
 O-AV-36         	19.836418
 O-AV-37         	16.541533
 O-AV-38         	14.589900
 I-AV-39         	10.368023
 I-AV-4          	11.936277
 I-AV-40         	9.077184
 O-AV-41         	22.653625
 I-AV-42         	8.447871
 O-AV-43         	8.339778
 I-AV-44         	8.728074
 I-AV-45         	10.140238
 I-AV-46         	9.346823
 I-AV-47         	9.436859
 O-AV-48         	9.192107
 O-AV-49         	19.850025
 I-AV-5          	10.483115
 O-AV-50         	13.856328
 I-AV-51         	8.302236
 I-AV-52         	8.637518
 I-AV-53         	16.792192
 I-AV-54         	9.591693
 I-AV-55         	8.894005
 I-AV-56         	10.215243
 I-AV-57         	9.464035
 O-AV-58         	21.874319
 O-AV-59         	7.652421
 I-AV-6          	10.649199
 I-AV-60         	7.381424
 I-AV-61         	9.282538
 O-AV-62         	15.632637
 I-AV-63         	6.987216
 O-AV-64         	6.765283
 O-AV-65         	5.539557
 O-AV-66         	5.958549
 I-AV-67         	10.249667
 I-AV-68         	4.793982
 I-AV-69         	4.879578
 O-AV-7          	15.917292
 O-AV-70         	5.052974
 I-AV-71         	13.604688
 O-AV-72         	31.707094
 O-AV-73         	26.994608
 I-AV-74         	26.808174
 I-AV-75         	25.843126
 I-AV-76         	26.740517
 O-AV-77         	25.012756
 I-AV-78         	10.164305
 I-AV-79         	26.335222
 I-AV-8          	8.797087
 I-AV-80         	25.490953
 I-AV-81         	27.006283
 I-AV-82         	40.499111
 I-AV-83         	118.020294
 O-AV-84         	30.609875
 O-AV-85         	30.880384
 O-AV-86         	42.595863
 I-AV-87         	11.074870
 I-AV-88         	11.883669
 I-AV-89         	37.562660
 I-AV-9          	8.837845
 O-AV-90         	28.004923
 I-AV-91         	24.403597
 O-AV-92         	20.204771
 I-AV-93         	27.753344
 I-AV-94         	29.550095
 I-AV-95         	6.226120
 I-AV-96         	10.377672
 O-Bartesta_Brancha	20.096619
 I-Food_World    	26.645618
 J-1             	6.511834
 J-10            	9.718299
 J-100           	27.509945
 J-101           	8.290137
 J-102           	9.050512
 J-103           	7.911774
 J-104           	7.531005
 J-105           	9.839818
 J-106           	24.359045
 J-107           	25.304697
 J-108           	8.349557
 J-109           	8.775553
 J-11            	27.142593
 J-110           	10.069018
 J-111           	8.479598
 J-112           	9.465943
 J-113           	9.390218
 J-114           	4.964583
 J-115           	5.136862
 J-116           	8.805883
 J-117           	9.420790
 J-118           	15.890610
 J-119           	8.963390
 J-12            	28.101097
 J-120           	26.693420
 J-121           	26.751146
 J-122           	26.169783
 J-123           	48.150101
 J-124           	14.837782
 J-125           	15.163809
 J-126           	16.687298
 J-127           	8.828919
 J-128           	799.916687
 J-129           	800.000000
 J-13            	7.549195
 J-130           	17.653591
 J-131           	20.503925
 J-132           	24.549955
 J-133           	24.465536
 J-134           	24.423250
 J-135           	31.843813
 J-136           	27.056808
 J-137           	27.108788
 J-138           	34.343464
 J-139           	14.165215
 J-14            	26.973671
 J-140           	24.662418
 J-141           	33.827728
 J-142           	799.833313
 J-143           	11.590336
 J-144           	9.395263
 J-145           	7.909512
 J-146           	7.152931
 J-147           	22.960178
 J-148           	17.334824
 J-149           	15.627184
 J-15            	20.100002
 J-150           	29.418800
 J-151           	15.019656
 J-152           	19.176195
 J-153           	29.349047
 J-154           	30.865704
 J-155           	50.915367
 J-156           	39.391838
 J-157           	13.440900
 J-158           	12.149769
 J-159           	6.922113
 J-16            	28.583330
 J-160           	9.269552
 J-161           	9.657119
 J-162           	6.688111
 J-163           	13.308416
 J-164           	12.764496
 J-165           	33.051682
 J-166           	12.041591
 J-167           	5.869400
 J-168           	12.041591
 J-169           	12.803035
 J-17            	31.827717
 J-170           	4.964583
 J-171           	4.793982
 J-172           	10.117814
 J-173           	10.180822
 J-174           	15.057320
 J-175           	17.191372
 J-176           	17.116199
 J-177           	18.704592
 J-178           	10.071841
 J-179           	35.383499
 J-18            	27.002995
 J-180           	45.701344
 J-181           	14.694997
 J-182           	7.559052
 J-183           	23.202751
 J-184           	11.738669
 J-185           	23.380409
 J-186           	7.820785
 J-187           	18.633165
 J-188           	29.803305
 J-189           	13.829681
 J-19            	24.379704
 J-191           	41.024899
 J-192           	11.599183
 J-193           	17.883287
 J-194           	18.535255
 J-195           	22.352148
 J-196           	9.327889
 J-197           	9.751387
 J-198           	18.669285
 J-199           	15.423191
 J-2             	6.251272
 J-20            	11.117843
 J-200           	34.209717
 J-201           	65.649017
 J-202           	7.292091
 J-203           	9.907050
 J-204           	9.636645
 J-205           	26.259638
 J-206           	11.311000
 J-207           	59.019608
 J-208           	17.994610
 J-209           	63.955730
 J-21            	10.572477
 J-210           	10.510540
 J-211           	16.063208
 J-212           	15.862642
 J-213           	24.664101
 J-214           	24.741613
 J-215           	48.789845
 J-216           	66.269493
 J-217           	33.100979
 J-218           	8.494403
 J-219           	8.796742
 J-22            	49.263809
 J-220           	17.694674
 J-221           	28.261709
 J-222           	8.956379
 J-223           	7.927536
 J-224           	33.482475
 J-225           	9.506077
 J-226           	15.874632
 J-227           	20.731878
 J-228           	11.089626
 J-229           	10.215243
 J-23            	10.045846
 J-230           	11.453495
 J-231           	8.832511
 J-232           	18.201765
 J-233           	16.504890
 J-234           	21.296591
 J-235           	17.064926
 J-236           	29.644466
 J-237           	22.898010
 J-238           	16.096245
 J-239           	8.651944
 J-24            	7.056082
 J-240           	12.647861
 J-241           	20.521429
 J-242           	15.019656
 J-243           	17.955145
 J-244           	16.134073
 J-245           	21.912889
 J-246           	18.520588
 J-247           	125.675537
 J-248           	20.618025
 J-249           	25.467268
 J-25            	9.477825
 J-250           	27.014877
 J-251           	27.820408
 J-252           	27.203440
 J-253           	26.762899
 J-254           	83.313667
 J-255           	28.939653
 J-256           	263.724457
 J-257           	11.671629
 J-258           	26.938690
 J-259           	24.790270
 J-26            	13.600764
 J-260           	10.481720
 J-261           	13.711554
 J-262           	34.522221
 J-263           	10.696578
 J-264           	10.606998
 J-265           	10.642475
 J-266           	10.313560
 J-267           	5.455841
 J-268           	5.379160
 J-269           	5.300467
 J-27            	10.756973
 J-270           	5.220195
 J-271           	5.136308
 J-272           	5.051417
 J-273           	10.795152
 J-274           	26.910980
 J-275           	123.725006
 J-276           	28.234131
 J-277           	29.272057
 J-278           	28.634409
 J-279           	31.958101
 J-28            	7.878105
 J-280           	5.782079
 J-281           	5.613070
 J-282           	5.532609
 J-283           	26.570982
 J-284           	799.833313
 J-285           	799.833313
 J-286           	799.833313
 J-287           	799.916687
 J-288           	19.528641
 J-289           	25.944777
 J-29            	8.047585
 J-290           	26.036224
 J-291           	26.313509
 J-292           	26.388889
 J-293           	26.448692
 J-294           	26.507984
 J-295           	26.603289
 J-296           	25.657066
 J-297           	26.514399
 J-298           	26.425795
 J-299           	70.719254
 J-3             	21.261925
 J-30            	23.733467
 J-300           	32.680923
 J-301           	308.239563
 J-302           	10.450195
 J-303           	11.185273
 J-304           	12.014791
 J-305           	12.379065
 J-306           	13.035101
 J-307           	13.400829
 J-308           	800.000000
 J-309           	736.586792
 J-31            	199.210754
 J-310           	29.720577
 J-311           	19.489466
 J-312           	17.424603
 J-313           	20.107187
 J-315           	26.229414
 J-316           	26.133274
 J-317           	6.678183
 J-318           	247.694824
 J-319           	243.202774
 J-32            	41.764908
 J-320           	240.224716
 J-321           	207.375748
 J-322           	30.869957
 J-323           	14.433617
 J-324           	24.365908
 J-325           	62.675587
 J-326           	25.531816
 J-327           	54.166580
 J-328           	6.922284
 J-329           	18.743900
 J-33            	9.236507
 J-330           	16.777666
 J-331           	36.742668
 J-332           	4.879578
 J-333           	6.416652
 J-334           	8.200583
 J-335           	16.505590
 J-336           	25.747967
 J-337           	54.774727
 J-338           	16.276566
 J-339           	9.116498
 J-34            	9.109823
 J-340           	24.919210
 J-341           	24.841124
 J-342           	24.657274
 J-343           	16.188196
 J-344           	16.571976
 J-345           	16.604874
 J-346           	10.811934
 J-347           	45.041740
 J-348           	17.499420
 J-349           	9.089309
 J-35            	11.844651
 J-350           	27.077162
 J-351           	10.599941
 J-352           	7.389320
 J-353           	9.580862
 J-354           	9.514628
 J-355           	9.587481
 J-356           	13.955734
 J-357           	13.872767
 J-358           	25.040535
 J-359           	61.299278
 J-36            	48.950191
 J-360           	22.962170
 J-361           	21.639116
 J-362           	20.407068
 J-363           	18.500551
 J-364           	18.088329
 J-365           	67.140541
 J-366           	94.493904
 J-367           	12.977824
 J-368           	28.228668
 J-369           	34.852333
 J-37            	7.036900
 J-370           	799.447693
 J-371           	9.039871
 J-372           	64.413719
 J-373           	10.438156
 J-374           	6.077519
 J-375           	514.933594
 J-376           	318.903809
 J-377           	24.443239
 J-378           	800.000000
 J-379           	9.081372
 J-38            	8.508441
 J-380           	17.019361
 J-381           	9.639820
 J-382           	10.398587
 J-383           	14.954232
 J-384           	8.974791
 J-385           	8.909045
 J-386           	10.329221
 J-387           	9.172662
 J-388           	14.395530
 J-389           	5.696076
 J-39            	9.534637
 J-4             	49.681347
 J-40            	23.238815
 J-41            	9.254853
 J-42            	13.884912
 J-43            	9.316561
 J-44            	9.073386
 J-45            	11.412422
 J-46            	12.073804
 J-47            	4.711497
 J-48            	8.807342
 J-49            	12.344204
 J-5             	11.198678
 J-50            	9.381791
 J-51            	9.843103
 J-52            	8.206624
 J-53            	22.254093
 J-54            	108.939743
 J-55            	160.063400
 J-56            	8.792707
 J-57            	9.486570
 J-58            	11.262946
 J-59            	29.115141
 J-6             	10.716491
 J-60            	91.759117
 J-61            	9.371256
 J-62            	9.361741
 J-63            	5.368834
 J-64            	8.636293
 J-65            	8.242765
 J-66            	8.318680
 J-67            	8.559470
 J-68            	17.627869
 J-69            	15.901390
 J-7             	9.995068
 J-70            	14.481481
 J-71            	14.412360
 J-72            	7.646714
 J-73            	11.031406
 J-74            	32.239796
 J-75            	10.688331
 J-76            	20.222727
 J-77            	45.091621
 J-78            	7.175878
 J-79            	7.467679
 J-8             	10.215261
 J-80            	30.728531
 J-81            	66.215050
 J-82            	16.757895
 J-83            	42.950039
 J-84            	8.486401
 J-85            	799.833313
 J-86            	799.833313
 J-87            	15.129161
 J-88            	17.678431
 J-89            	18.230221
 J-9             	9.250162
 J-90            	10.145106
 J-91            	9.243659
 J-92            	9.701755
 J-93            	9.959208
 J-94            	13.695222
 J-95            	10.272632
 J-96            	19.994411
 J-97            	20.152554
 J-98            	27.716869
 J-99            	30.470078
 O-Pump-1        	0.083333
 I-931_South     	107.634048
 O-AV-1          	800.000000
 I-AV-10         	37.799686
 O-AV-11         	18.333744
 O-AV-12         	799.916687
 O-AV-13         	27.028362
 O-AV-14         	83.296021
 O-AV-15         	13.504536
 I-AV-16         	17.183922
 O-AV-17         	10.907662
 O-AV-18         	32.322704
 I-AV-19         	18.422552
 O-AV-2          	9.677168
 O-AV-20         	18.172180
 O-AV-21         	18.835932
 I-AV-22         	16.455139
 O-AV-23         	799.791687
 I-AV-24         	15.809893
 I-AV-25         	30.404259
 O-AV-26         	24.574732
 O-AV-27         	27.231661
 O-AV-28         	16.183380
 I-AV-29         	167.469620
 O-AV-3          	32.969379
 I-AV-30         	21.273310
 O-AV-31         	9.235878
 I-AV-32         	9.923844
 O-AV-33         	9.484746
 O-AV-34         	8.773147
 I-AV-35         	20.340864
 I-AV-36         	19.866123
 I-AV-37         	16.594025
 I-AV-38         	14.487517
 O-AV-39         	10.342660
 O-AV-4          	11.879971
 O-AV-40         	9.054086
 I-AV-41         	22.687092
 O-AV-42         	8.335904
 I-AV-43         	8.452143
 O-AV-44         	8.603109
 O-AV-45         	10.177103
 O-AV-46         	9.190651
 O-AV-47         	9.417249
 I-AV-48         	9.184896
 I-AV-49         	19.919035
 O-AV-5          	10.443023
 I-AV-50         	13.772995
 O-AV-51         	8.264610
 O-AV-52         	8.631684
 O-AV-53         	16.870363
 O-AV-54         	9.448638
 O-AV-55         	8.907559
 O-AV-56         	10.166334
 O-AV-57         	9.420137
 I-AV-58         	21.856449
 I-AV-59         	7.647124
 O-AV-6          	10.613411
 O-AV-60         	7.382206
 O-AV-61         	9.287163
 I-AV-62         	15.714253
 O-AV-63         	6.981573
 I-AV-64         	6.769070
 I-AV-65         	5.539603
 I-AV-66         	5.961717
 O-AV-67         	10.208126
 O-AV-68         	4.794389
 O-AV-69         	4.877722
 I-AV-7          	15.890244
 I-AV-70         	5.051417
 O-AV-71         	13.578691
 I-AV-72         	31.679422
 I-AV-73         	27.090921
 O-AV-74         	26.811804
 O-AV-75         	25.848167
 O-AV-76         	26.696119
 I-AV-77         	25.018221
 O-AV-78         	10.128622
 O-AV-79         	26.339508
 O-AV-8          	8.751140
 O-AV-80         	25.481798
 O-AV-81         	26.878086
 O-AV-82         	40.582443
 O-AV-83         	118.020805
 I-AV-84         	30.576843
 I-AV-85         	30.964788
 I-AV-86         	42.571117
 O-AV-87         	11.112887
 O-AV-88         	11.832682
 O-AV-89         	37.559002
 O-AV-9          	8.863244
 I-AV-90         	28.052006
 O-AV-91         	24.463148
 I-AV-92         	20.195606
 O-AV-93         	27.760105
 O-AV-94         	29.549725
 O-AV-95         	6.231612
 O-AV-96         	10.179496
 I-Bartesta_Brancha	20.128214
 O-Food_World    	26.633619
 I-Pump-1        	0.083333

[SOURCES]
;Node            	Type        	Quality     	Pattern

[REACTIONS]
;Type     	Pipe/Tank       	Coefficient


[REACTIONS]
 Order Bulk            	1.00
 Order Tank            	1.00
 Order Wall            	0
 Global Bulk           	0.000000
 Global Wall           	4.000000
 Limiting Potential    	0
 Roughness Correlation 	0

[MIXING]
;Tank            	Model

[TIMES]
 Duration           	0:00 
 Hydraulic Timestep 	0:05 
 Quality Timestep   	0:05 
 Pattern Timestep   	1:00 
 Pattern Start      	0:00 
 Report Timestep    	1:00 
 Report Start       	0:00 
 Start ClockTime    	0:00:00
 Statistic          	NONE

[REPORT]
 Status             	Full
 Summary            	No
 Page               	0

[OPTIONS]
 Units              	GPM
 Headloss           	H-W
 Specific Gravity   	1.000000
 Viscosity          	1.000000
 Trials             	50
 Accuracy           	0.00010000
 CHECKFREQ          	2
 MAXCHECK           	10
 DAMPLIMIT          	0.00000000
 Unbalanced         	Continue 10
 Pattern            	1
 Demand Multiplier  	1.0000
 Emitter Exponent   	0.5000
 Quality            	AGE mg/L
 Diffusivity        	0.050000
 Tolerance          	0.01000000

[COORDINATES]
;Node            	X-Coord         	Y-Coord
 O-931_South     	5767374.39      	3562129.00      
 I-AV-1          	5762046.06      	3559106.00      
 O-AV-10         	5768766.49      	3581670.00      
 I-AV-11         	5768858.07      	3582151.00      
 I-AV-12         	5762992.98      	3559761.00      
 I-AV-13         	5768783.72      	3582438.00      
 I-AV-14         	5768744.80      	3582565.00      
 I-AV-15         	5769499.33      	3582158.00      
 O-AV-16         	5769959.95      	3581525.00      
 I-AV-17         	5769523.43      	3581328.00      
 I-AV-18         	5769784.48      	3582268.00      
 O-AV-19         	5770211.23      	3582009.00      
 I-AV-2          	5766268.62      	3580423.00      
 I-AV-20         	5770200.12      	3582006.00      
 I-AV-21         	5770211.17      	3582002.00      
 O-AV-22         	5771008.12      	3580606.00      
 I-AV-23         	5765357.09      	3561097.00      
 O-AV-24         	5771031.33      	3580623.00      
 O-AV-25         	5771538.92      	3581199.00      
 I-AV-26         	5770703.89      	3581497.00      
 I-AV-27         	5770712.27      	3581491.00      
 I-AV-28         	5770515.94      	3581945.00      
 O-AV-29         	5770835.47      	3580396.00      
 I-AV-3          	5767935.64      	3581677.00      
 O-AV-30         	5770421.80      	3581124.00      
 I-AV-31         	5772022.96      	3579679.00      
 O-AV-32         	5773640.47      	3578912.00      
 I-AV-33         	5769029.50      	3581042.00      
 I-AV-34         	5768855.58      	3581337.00      
 O-AV-35         	5771949.73      	3566352.00      
 O-AV-36         	5771908.02      	3566614.00      
 O-AV-37         	5769949.69      	3570053.00      
 O-AV-38         	5765894.92      	3572715.00      
 I-AV-39         	5765911.16      	3580920.00      
 I-AV-4          	5768406.88      	3580996.00      
 I-AV-40         	5773128.91      	3580940.00      
 O-AV-41         	5773340.27      	3580634.00      
 I-AV-42         	5773144.01      	3580116.00      
 O-AV-43         	5773208.66      	3580136.00      
 I-AV-44         	5773402.82      	3580030.00      
 I-AV-45         	5766178.90      	3580571.00      
 I-AV-46         	5773549.90      	3579974.00      
 I-AV-47         	5773969.69      	3579788.00      
 O-AV-48         	5774201.00      	3579615.00      
 O-AV-49         	5774525.57      	3579090.00      
 I-AV-5          	5768602.36      	3581108.00      
 O-AV-50         	5775640.52      	3578824.00      
 I-AV-51         	5774662.80      	3579775.00      
 I-AV-52         	5774394.43      	3579663.00      
 I-AV-53         	5775243.84      	3579880.00      
 I-AV-54         	5775338.78      	3579894.00      
 I-AV-55         	5775360.34      	3579896.00      
 I-AV-56         	5766165.60      	3580588.00      
 I-AV-57         	5775284.11      	3580231.00      
 O-AV-58         	5775835.01      	3582938.00      
 O-AV-59         	5775223.49      	3579294.00      
 I-AV-6          	5768584.88      	3581079.00      
 I-AV-60         	5775263.57      	3579188.00      
 I-AV-61         	5776219.98      	3579409.00      
 O-AV-62         	5776952.55      	3579618.00      
 I-AV-63         	5776206.16      	3579188.00      
 O-AV-64         	5776130.70      	3578989.00      
 O-AV-65         	5776481.44      	3577570.00      
 O-AV-66         	5777392.08      	3578971.00      
 I-AV-67         	5766155.12      	3580565.00      
 I-AV-68         	5777243.63      	3578894.00      
 I-AV-69         	5777356.90      	3578895.00      
 O-AV-7          	5771011.07      	3580625.00      
 O-AV-70         	5777205.16      	3578724.00      
 I-AV-71         	5777851.97      	3579731.00      
 O-AV-72         	5778283.99      	3579104.00      
 O-AV-73         	5779718.05      	3578378.00      
 I-AV-74         	5780951.38      	3578196.00      
 I-AV-75         	5782221.31      	3579566.00      
 I-AV-76         	5782091.09      	3579298.00      
 O-AV-77         	5782676.67      	3579754.00      
 I-AV-78         	5766197.70      	3580533.00      
 I-AV-79         	5782986.48      	3580623.00      
 I-AV-8          	5768900.27      	3581340.00      
 I-AV-80         	5783940.00      	3580644.00      
 I-AV-81         	5784265.69      	3580165.00      
 I-AV-82         	5784638.70      	3580208.00      
 I-AV-83         	5785285.20      	3580822.00      
 O-AV-84         	5783432.22      	3581391.00      
 O-AV-85         	5783324.28      	3581621.00      
 O-AV-86         	5788958.56      	3583523.00      
 I-AV-87         	5766181.49      	3580500.00      
 I-AV-88         	5764738.70      	3577109.00      
 I-AV-89         	5787788.17      	3583773.00      
 I-AV-9          	5768903.47      	3581342.00      
 O-AV-90         	5784668.57      	3581895.00      
 I-AV-91         	5781725.73      	3578057.00      
 O-AV-92         	5780264.79      	3577279.00      
 I-AV-93         	5778328.25      	3578408.00      
 I-AV-94         	5777526.65      	3578705.00      
 I-AV-95         	5775358.90      	3578396.00      
 I-AV-96         	5770156.21      	3580604.00      
 O-Bartesta_Brancha	5772076.23      	3566511.00      
 I-Food_World    	5782159.53      	3579393.00      
 J-1             	5776217.50      	3579106.00      
 J-10            	5775354.50      	3581141.00      
 J-100           	5783983.50      	3581647.00      
 J-101           	5775792.12      	3579191.00      
 J-102           	5775415.85      	3579513.00      
 J-103           	5776176.70      	3579051.00      
 J-104           	5776492.23      	3578980.00      
 J-105           	5771719.59      	3578861.00      
 J-106           	5770466.50      	3582570.00      
 J-107           	5770557.45      	3582954.00      
 J-108           	5775501.65      	3579609.00      
 J-109           	5775730.82      	3579346.00      
 J-11            	5779214.02      	3578913.00      
 J-110           	5773566.51      	3581140.00      
 J-111           	5773156.22      	3580111.00      
 J-112           	5773883.19      	3579822.00      
 J-113           	5773583.05      	3579961.00      
 J-114           	5777202.68      	3578733.00      
 J-115           	5777237.00      	3578517.00      
 J-116           	5768886.73      	3581341.00      
 J-117           	5769045.37      	3580995.00      
 J-118           	5771024.58      	3580621.00      
 J-119           	5773171.59      	3580924.00      
 J-12            	5777817.88      	3578118.00      
 J-120           	5782156.51      	3579390.00      
 J-121           	5781300.42      	3578444.00      
 J-122           	5783398.08      	3580974.00      
 J-123           	5767591.24      	3562513.00      
 J-124           	5770609.00      	3581705.00      
 J-125           	5770581.08      	3581793.00      
 J-126           	5768773.54      	3581594.00      
 J-127           	5768839.82      	3581337.00      
 J-128           	5762080.71      	3559221.00      
 J-129           	5760923.84      	3558247.00      
 J-13            	5773408.01      	3579175.00      
 J-130           	5771269.69      	3581555.00      
 J-131           	5771538.28      	3581622.00      
 J-132           	5783301.13      	3579688.00      
 J-133           	5783300.79      	3579688.00      
 J-134           	5781996.16      	3578521.00      
 J-135           	5771858.83      	3581616.00      
 J-136           	5780111.45      	3578254.00      
 J-137           	5779716.78      	3578403.00      
 J-138           	5787953.12      	3583431.00      
 J-139           	5770519.01      	3581405.00      
 J-14            	5779734.71      	3578057.00      
 J-140           	5771634.49      	3581470.00      
 J-141           	5770569.99      	3581368.00      
 J-142           	5764373.20      	3560480.00      
 J-143           	5769897.20      	3581414.00      
 J-144           	5775288.13      	3580213.00      
 J-145           	5775215.38      	3579592.00      
 J-146           	5776672.09      	3578914.00      
 J-147           	5776512.76      	3578609.00      
 J-148           	5769957.97      	3581489.00      
 J-149           	5769818.76      	3582018.00      
 J-15            	5779870.98      	3577290.00      
 J-150           	5777705.11      	3578552.00      
 J-151           	5775077.25      	3579852.00      
 J-152           	5775817.02      	3578464.00      
 J-153           	5785866.51      	3582532.00      
 J-154           	5783332.78      	3581502.00      
 J-155           	5789211.74      	3584848.00      
 J-156           	5787694.00      	3583968.00      
 J-157           	5768455.51      	3580812.00      
 J-158           	5768642.00      	3580897.00      
 J-159           	5776122.35      	3578977.00      
 J-16            	5777800.67      	3578519.00      
 J-160           	5766487.66      	3580531.00      
 J-161           	5766271.68      	3580418.00      
 J-162           	5776362.33      	3578831.00      
 J-163           	5777861.02      	3579719.00      
 J-164           	5777722.13      	3579782.00      
 J-165           	5778372.83      	3579176.00      
 J-166           	5777932.25      	3579663.00      
 J-167           	5777400.14      	3578971.00      
 J-168           	5777932.39      	3579663.00      
 J-169           	5777721.82      	3579786.00      
 J-17            	5778285.12      	3579105.00      
 J-170           	5777374.11      	3578921.00      
 J-171           	5777355.99      	3578893.00      
 J-172           	5766199.56      	3580530.00      
 J-173           	5766171.32      	3580576.00      
 J-174           	5765978.39      	3572469.00      
 J-175           	5767971.32      	3572424.00      
 J-176           	5770514.77      	3569416.00      
 J-177           	5771914.94      	3567621.00      
 J-178           	5766210.62      	3580510.00      
 J-179           	5775686.11      	3581406.00      
 J-18            	5780565.24      	3578182.00      
 J-180           	5770735.08      	3580398.00      
 J-181           	5773431.02      	3580561.00      
 J-182           	5775170.50      	3579272.00      
 J-183           	5768241.51      	3580556.00      
 J-184           	5768430.33      	3581008.00      
 J-185           	5767893.85      	3581058.00      
 J-186           	5775232.00      	3579550.00      
 J-187           	5770204.83      	3582003.00      
 J-188           	5769828.62      	3582182.00      
 J-189           	5777715.36      	3579790.00      
 J-19            	5780798.83      	3577265.00      
 J-191           	5770295.50      	3578627.00      
 J-192           	5768654.50      	3580972.00      
 J-193           	5768553.37      	3580485.00      
 J-194           	5770207.92      	3582005.00      
 J-195           	5770432.52      	3582444.00      
 J-196           	5766500.29      	3580503.00      
 J-197           	5766735.58      	3580101.00      
 J-198           	5771131.61      	3581545.00      
 J-199           	5770812.92      	3581571.00      
 J-2             	5776592.51      	3579097.00      
 J-20            	5766187.72      	3580506.00      
 J-200           	5769792.81      	3582241.00      
 J-201           	5769727.50      	3582455.00      
 J-202           	5775634.00      	3579193.00      
 J-203           	5766550.34      	3580077.00      
 J-204           	5769078.49      	3580525.00      
 J-205           	5783131.16      	3580892.00      
 J-206           	5768818.46      	3581018.00      
 J-207           	5773234.20      	3580739.00      
 J-208           	5773367.74      	3580594.00      
 J-209           	5767473.04      	3562255.00      
 J-21            	5766193.02      	3580044.00      
 J-210           	5768590.43      	3581095.00      
 J-211           	5770520.33      	3581960.00      
 J-212           	5770555.13      	3581962.00      
 J-213           	5783460.19      	3580467.00      
 J-214           	5782668.50      	3579608.00      
 J-215           	5782273.95      	3579635.00      
 J-216           	5771111.62      	3581031.00      
 J-217           	5771546.52      	3581221.00      
 J-218           	5773342.05      	3579862.00      
 J-219           	5773659.77      	3579705.00      
 J-22            	5774430.57      	3580084.00      
 J-220           	5776782.07      	3579425.00      
 J-221           	5776979.51      	3579432.00      
 J-222           	5775371.99      	3579898.00      
 J-223           	5775343.18      	3579427.00      
 J-224           	5767923.84      	3581683.00      
 J-225           	5773531.74      	3580368.00      
 J-226           	5774171.40      	3580103.00      
 J-227           	5774339.01      	3578624.00      
 J-228           	5772628.86      	3580419.00      
 J-229           	5766157.62      	3580567.00      
 J-23            	5774097.69      	3579847.00      
 J-230           	5765556.58      	3577966.00      
 J-231           	5775346.36      	3579893.00      
 J-232           	5772698.81      	3580849.00      
 J-233           	5776650.50      	3579432.00      
 J-234           	5776650.50      	3579566.00      
 J-235           	5771978.06      	3580255.00      
 J-236           	5769813.95      	3582227.00      
 J-237           	5775286.62      	3579889.00      
 J-238           	5775187.70      	3579869.00      
 J-239           	5776601.17      	3579190.00      
 J-24            	5776205.01      	3579195.00      
 J-240           	5776995.46      	3579201.00      
 J-241           	5775338.38      	3579894.00      
 J-242           	5775077.23      	3579852.00      
 J-243           	5775055.37      	3580042.00      
 J-244           	5775187.66      	3579870.00      
 J-245           	5775183.37      	3579907.00      
 J-246           	5775341.03      	3579922.00      
 J-247           	5775284.82      	3580190.00      
 J-248           	5775170.68      	3580068.00      
 J-249           	5775284.91      	3579933.00      
 J-25            	5776219.13      	3579426.00      
 J-250           	5784266.76      	3580139.00      
 J-251           	5784251.61      	3580505.00      
 J-252           	5784229.79      	3580908.00      
 J-253           	5783954.44      	3580581.00      
 J-254           	5784506.17      	3580717.00      
 J-255           	5783968.19      	3580544.00      
 J-256           	5784449.20      	3580466.00      
 J-257           	5765254.71      	3577925.00      
 J-258           	5784274.16      	3580101.00      
 J-259           	5783575.96      	3580479.00      
 J-26            	5774801.39      	3579650.00      
 J-260           	5768946.49      	3581100.00      
 J-261           	5777726.23      	3579795.00      
 J-262           	5787953.51      	3583432.00      
 J-263           	5772861.01      	3580575.00      
 J-264           	5772906.64      	3580624.00      
 J-265           	5769476.82      	3581403.00      
 J-266           	5769414.42      	3581512.00      
 J-267           	5777343.02      	3578935.00      
 J-268           	5777350.14      	3578932.00      
 J-269           	5777358.65      	3578927.00      
 J-27            	5774838.70      	3579157.00      
 J-270           	5777367.49      	3578926.00      
 J-271           	5777367.81      	3578924.00      
 J-272           	5777375.96      	3578924.00      
 J-273           	5768578.35      	3581060.00      
 J-274           	5780880.56      	3578180.00      
 J-275           	5780802.85      	3577266.00      
 J-276           	5777838.03      	3578262.00      
 J-277           	5777419.95      	3578056.00      
 J-278           	5777660.76      	3577929.00      
 J-279           	5778289.10      	3579108.00      
 J-28            	5775013.00      	3579417.00      
 J-280           	5777406.95      	3578965.00      
 J-281           	5777333.13      	3578939.00      
 J-282           	5777339.41      	3578934.00      
 J-283           	5782160.20      	3579395.00      
 J-284           	5764302.50      	3560427.00      
 J-285           	5763035.18      	3559773.00      
 J-286           	5763031.96      	3559770.00      
 J-287           	5762083.30      	3559224.00      
 J-288           	5771968.54      	3566918.00      
 J-289           	5782134.21      	3579449.00      
 J-29            	5774885.36      	3579529.00      
 J-290           	5782125.75      	3579438.00      
 J-291           	5782152.64      	3579417.00      
 J-292           	5782168.01      	3579413.00      
 J-293           	5782160.74      	3579403.00      
 J-294           	5782159.27      	3579400.00      
 J-295           	5782813.44      	3580339.00      
 J-296           	5782502.90      	3579948.00      
 J-297           	5782887.49      	3580454.00      
 J-298           	5782968.62      	3580582.00      
 J-299           	5771990.17      	3581692.00      
 J-3             	5771575.24      	3581638.00      
 J-30            	5775040.84      	3579058.00      
 J-300           	5771557.88      	3581234.00      
 J-301           	5766187.67      	3580529.00      
 J-302           	5765879.02      	3580906.00      
 J-303           	5765073.07      	3579220.00      
 J-304           	5764392.34      	3576561.00      
 J-305           	5763702.92      	3575571.00      
 J-306           	5765109.77      	3574397.00      
 J-307           	5765538.37      	3573633.00      
 J-308           	5770547.66      	3580495.00      
 J-309           	5775809.26      	3578474.00      
 J-31            	5785750.09      	3581417.00      
 J-310           	5777518.16      	3578329.00      
 J-311           	5774520.89      	3579100.00      
 J-312           	5769960.74      	3581486.00      
 J-313           	5775662.55      	3582816.00      
 J-315           	5782124.78      	3579420.00      
 J-316           	5782128.47      	3579430.00      
 J-317           	5776169.36      	3579055.00      
 J-318           	5785871.99      	3581458.33      
 J-319           	5785772.72      	3581441.00      
 J-32            	5784688.60      	3580225.00      
 J-320           	5785768.27      	3581442.00      
 J-321           	5785746.14      	3581421.00      
 J-322           	5783339.57      	3581504.00      
 J-323           	5770613.41      	3581590.00      
 J-324           	5770705.70      	3581493.00      
 J-325           	5770724.19      	3581411.00      
 J-326           	5770711.49      	3581496.00      
 J-327           	5767494.33      	3562324.00      
 J-328           	5776131.58      	3578977.00      
 J-329           	5775335.74      	3579918.00      
 J-33            	5774115.56      	3579696.00      
 J-330           	5768849.77      	3582188.00      
 J-331           	5768778.07      	3582471.00      
 J-332           	5777238.95      	3578895.00      
 J-333           	5776661.39      	3578918.00      
 J-334           	5775413.80      	3579515.00      
 J-335           	5777001.59      	3579598.00      
 J-336           	5782272.61      	3579636.00      
 J-337           	5768979.47      	3571278.00      
 J-338           	5768872.77      	3571266.00      
 J-339           	5776220.26      	3579468.00      
 J-34            	5774221.13      	3579584.00      
 J-340           	5782696.09      	3579732.00      
 J-341           	5782710.33      	3579733.00      
 J-342           	5782975.14      	3579710.00      
 J-343           	5769276.06      	3570617.00      
 J-344           	5769956.68      	3570045.00      
 J-345           	5769960.24      	3570044.00      
 J-346           	5769508.90      	3581356.00      
 J-347           	5768759.63      	3581743.00      
 J-348           	5768849.10      	3582184.00      
 J-349           	5773521.61      	3579986.00      
 J-35            	5773897.50      	3578914.00      
 J-350           	5779620.69      	3578715.00      
 J-351           	5775361.73      	3581326.00      
 J-352           	5776230.51      	3579191.00      
 J-353           	5769190.25      	3581522.00      
 J-354           	5773530.92      	3580368.00      
 J-355           	5773848.52      	3580225.00      
 J-356           	5769611.63      	3582120.00      
 J-357           	5769605.46      	3582125.00      
 J-358           	5768093.07      	3580600.00      
 J-359           	5770551.17      	3581793.00      
 J-36            	5775093.00      	3578942.00      
 J-360           	5770403.53      	3581214.00      
 J-361           	5770400.20      	3581154.00      
 J-362           	5770477.93      	3581046.00      
 J-363           	5770623.92      	3580898.00      
 J-364           	5770675.13      	3580853.00      
 J-365           	5770307.21      	3581222.00      
 J-366           	5768737.59      	3582586.00      
 J-367           	5769307.94      	3582165.00      
 J-368           	5774230.93      	3566930.00      
 J-369           	5774877.44      	3566366.00      
 J-37            	5775833.49      	3578855.00      
 J-370           	5774951.45      	3567331.00      
 J-371           	5772433.40      	3579594.00      
 J-372           	5769982.85      	3572326.00      
 J-373           	5766234.27      	3579945.00      
 J-374           	5776375.75      	3576575.00      
 J-375           	5783961.76      	3580540.00      
 J-376           	5784824.13      	3580535.00      
 J-377           	5781524.00      	3577711.00      
 J-378           	5773195.94      	3580950.00      
 J-379           	5773186.41      	3580937.00      
 J-38            	5773201.81      	3580121.00      
 J-380           	5773361.22      	3580570.00      
 J-381           	5773848.06      	3580230.00      
 J-382           	5765881.40      	3580905.00      
 J-383           	5765991.39      	3572495.00      
 J-384           	5772453.92      	3579590.00      
 J-385           	5772455.00      	3579589.00      
 J-386           	5773491.95      	3580457.00      
 J-387           	5773088.25      	3580955.00      
 J-388           	5770609.74      	3581592.00      
 J-389           	5777390.97      	3578952.00      
 J-39            	5773338.95      	3580408.00      
 J-4             	5771550.51      	3581708.00      
 J-40            	5774633.41      	3578627.00      
 J-41            	5774217.70      	3579359.00      
 J-42            	5774321.87      	3579007.00      
 J-43            	5772000.22      	3579684.00      
 J-44            	5774220.96      	3579472.00      
 J-45            	5773820.01      	3578706.00      
 J-46            	5769079.11      	3582177.25      
 J-47            	5777332.49      	3578871.00      
 J-48            	5768887.36      	3581337.00      
 J-49            	5771448.96      	3579583.00      
 J-5             	5772455.34      	3579591.00      
 J-50            	5771748.44      	3579583.00      
 J-51            	5771959.38      	3579643.00      
 J-52            	5774745.15      	3579658.00      
 J-53            	5774552.70      	3579032.00      
 J-54            	5774663.09      	3579400.00      
 J-55            	5775042.28      	3579054.00      
 J-56            	5773414.12      	3580024.00      
 J-57            	5769063.01      	3580889.00      
 J-58            	5768903.65      	3581934.00      
 J-59            	5786173.50      	3582442.00      
 J-6             	5772542.49      	3580165.00      
 J-60            	5787107.51      	3582575.00      
 J-61            	5769217.37      	3581073.00      
 J-62            	5774021.03      	3579767.00      
 J-63            	5776603.67      	3577899.00      
 J-64            	5773235.06      	3580738.00      
 J-65            	5772950.76      	3580233.00      
 J-66            	5774647.42      	3579810.00      
 J-67            	5774442.45      	3579685.00      
 J-68            	5770737.05      	3580815.00      
 J-69            	5771015.59      	3580619.00      
 J-7             	5773638.13      	3578915.00      
 J-70            	5770011.50      	3581451.00      
 J-71            	5769969.40      	3581438.00      
 J-72            	5775113.01      	3579329.00      
 J-73            	5777922.50      	3579460.00      
 J-74            	5778310.27      	3579123.00      
 J-75            	5773622.99      	3578198.00      
 J-76            	5775666.38      	3582825.00      
 J-77            	5776725.53      	3584112.00      
 J-78            	5775524.59      	3579088.00      
 J-79            	5775254.25      	3579196.00      
 J-8             	5773472.75      	3578304.00      
 J-80            	5767738.76      	3581102.00      
 J-81            	5767513.82      	3581150.00      
 J-82            	5768829.46      	3571570.00      
 J-83            	5769940.74      	3572308.00      
 J-84            	5773546.50      	3580326.00      
 J-85            	5765302.50      	3561096.00      
 J-86            	5764599.50      	3564155.00      
 J-87            	5774157.50      	3578739.00      
 J-88            	5773767.01      	3578814.00      
 J-89            	5773839.01      	3578667.00      
 J-9             	5775359.00      	3581048.00      
 J-90            	5772747.02      	3580784.00      
 J-91            	5773087.20      	3580953.00      
 J-92            	5773873.13      	3580286.00      
 J-93            	5774015.51      	3580483.00      
 J-94            	5773538.55      	3580481.00      
 J-95            	5773490.77      	3580459.00      
 J-96            	5771938.83      	3566443.00      
 J-97            	5772100.33      	3566519.00      
 J-98            	5774230.49      	3566932.00      
 J-99            	5783420.69      	3581469.00      
 O-Pump-1        	5777325.96      	3578880.00      
 I-931_South     	5767374.39      	3562129.00      
 O-AV-1          	5762046.06      	3559106.00      
 I-AV-10         	5768766.49      	3581670.00      
 O-AV-11         	5768858.07      	3582151.00      
 O-AV-12         	5762992.98      	3559761.00      
 O-AV-13         	5768783.72      	3582438.00      
 O-AV-14         	5768744.80      	3582565.00      
 O-AV-15         	5769499.33      	3582158.00      
 I-AV-16         	5769959.95      	3581525.00      
 O-AV-17         	5769523.43      	3581328.00      
 O-AV-18         	5769784.48      	3582268.00      
 I-AV-19         	5770211.23      	3582009.00      
 O-AV-2          	5766268.62      	3580423.00      
 O-AV-20         	5770200.12      	3582006.00      
 O-AV-21         	5770211.17      	3582002.00      
 I-AV-22         	5771008.12      	3580606.00      
 O-AV-23         	5765357.09      	3561097.00      
 I-AV-24         	5771031.33      	3580623.00      
 I-AV-25         	5771538.92      	3581199.00      
 O-AV-26         	5770703.89      	3581497.00      
 O-AV-27         	5770712.27      	3581491.00      
 O-AV-28         	5770515.94      	3581945.00      
 I-AV-29         	5770835.47      	3580396.00      
 O-AV-3          	5767935.64      	3581677.00      
 I-AV-30         	5770421.80      	3581124.00      
 O-AV-31         	5772022.96      	3579679.00      
 I-AV-32         	5773640.47      	3578912.00      
 O-AV-33         	5769029.50      	3581042.00      
 O-AV-34         	5768855.58      	3581337.00      
 I-AV-35         	5771949.73      	3566352.00      
 I-AV-36         	5771908.02      	3566614.00      
 I-AV-37         	5769949.69      	3570053.00      
 I-AV-38         	5765894.92      	3572715.00      
 O-AV-39         	5765911.16      	3580920.00      
 O-AV-4          	5768406.88      	3580996.00      
 O-AV-40         	5773128.91      	3580940.00      
 I-AV-41         	5773340.27      	3580634.00      
 O-AV-42         	5773144.01      	3580116.00      
 I-AV-43         	5773208.66      	3580136.00      
 O-AV-44         	5773402.82      	3580030.00      
 O-AV-45         	5766178.90      	3580571.00      
 O-AV-46         	5773549.90      	3579974.00      
 O-AV-47         	5773969.69      	3579788.00      
 I-AV-48         	5774201.00      	3579615.00      
 I-AV-49         	5774525.57      	3579090.00      
 O-AV-5          	5768602.36      	3581108.00      
 I-AV-50         	5775640.52      	3578824.00      
 O-AV-51         	5774662.80      	3579775.00      
 O-AV-52         	5774394.43      	3579663.00      
 O-AV-53         	5775243.84      	3579880.00      
 O-AV-54         	5775338.78      	3579894.00      
 O-AV-55         	5775360.34      	3579896.00      
 O-AV-56         	5766165.60      	3580588.00      
 O-AV-57         	5775284.11      	3580231.00      
 I-AV-58         	5775835.01      	3582938.00      
 I-AV-59         	5775223.49      	3579294.00      
 O-AV-6          	5768584.88      	3581079.00      
 O-AV-60         	5775263.57      	3579188.00      
 O-AV-61         	5776219.98      	3579409.00      
 I-AV-62         	5776952.55      	3579618.00      
 O-AV-63         	5776206.16      	3579188.00      
 I-AV-64         	5776130.70      	3578989.00      
 I-AV-65         	5776481.44      	3577570.00      
 I-AV-66         	5777392.08      	3578971.00      
 O-AV-67         	5766155.12      	3580565.00      
 O-AV-68         	5777243.63      	3578894.00      
 O-AV-69         	5777356.90      	3578895.00      
 I-AV-7          	5771011.07      	3580625.00      
 I-AV-70         	5777205.16      	3578724.00      
 O-AV-71         	5777851.97      	3579731.00      
 I-AV-72         	5778283.99      	3579104.00      
 I-AV-73         	5779718.05      	3578378.00      
 O-AV-74         	5780951.38      	3578196.00      
 O-AV-75         	5782221.31      	3579566.00      
 O-AV-76         	5782091.09      	3579298.00      
 I-AV-77         	5782676.67      	3579754.00      
 O-AV-78         	5766197.70      	3580533.00      
 O-AV-79         	5782986.48      	3580623.00      
 O-AV-8          	5768900.27      	3581340.00      
 O-AV-80         	5783940.00      	3580644.00      
 O-AV-81         	5784265.69      	3580165.00      
 O-AV-82         	5784638.70      	3580208.00      
 O-AV-83         	5785285.20      	3580822.00      
 I-AV-84         	5783432.22      	3581391.00      
 I-AV-85         	5783324.28      	3581621.00      
 I-AV-86         	5788958.56      	3583523.00      
 O-AV-87         	5766181.49      	3580500.00      
 O-AV-88         	5764738.70      	3577109.00      
 O-AV-89         	5787788.17      	3583773.00      
 O-AV-9          	5768903.47      	3581342.00      
 I-AV-90         	5784668.57      	3581895.00      
 O-AV-91         	5781725.73      	3578057.00      
 I-AV-92         	5780264.79      	3577279.00      
 O-AV-93         	5778328.25      	3578408.00      
 O-AV-94         	5777526.65      	3578705.00      
 O-AV-95         	5775358.90      	3578396.00      
 O-AV-96         	5770156.21      	3580604.00      
 I-Bartesta_Brancha	5772076.23      	3566511.00      
 O-Food_World    	5782159.53      	3579393.00      
 I-Pump-1        	5777325.96      	3578880.00      
 R-1             	5777318.80      	3578891.00      
 1               	5759978.66      	3559255.65      
 2               	5774731.50      	3566292.80      
 3               	5777424.40      	3578955.52      
 4               	5774361.80      	3578224.03      
 5               	5786139.57      	3581279.95      
 6               	5768841.16      	3583545.43      
 7               	5778009.87      	3579706.47      

[VERTICES]
;Link            	X-Coord         	Y-Coord

[LABELS]
;X-Coord           Y-Coord          Label & Anchor Node

[BACKDROP]
 DIMENSIONS     	5758370.04      	3556916.95      	5790680.39      	3586178.05      
 UNITS          	None
 FILE           	
 OFFSET         	0.00            	0.00            

[END]
